TITL ACETAC01-OPT-3 -61.1392 1.2744
CELL 0.7 13.1675 3.9309 6.0471 90 90 90
LATT -1
SYMM -x,-y,1/2+z
SYMM 1/2+x,1/2-y,+z
SYMM 1/2-x,1/2+y,1/2+z
SFAC C O H
C1    1       0.163056540000       0.309414550000       0.272391030000
C2    1       0.089517950000       0.395872220000       0.449255560000
H1    3       0.176151450000       0.063776950000      -0.000482200000
H2    3       0.129030160000       0.538901160000       0.577256490000
H3    3       0.028669350000       0.558547360000       0.388500680000
H4    3       0.056326080000       0.170912500000       0.525559060000
O1    2       0.124755100000       0.116595940000       0.114664240000
O2    2       0.250692690000       0.409159840000       0.267730670000