TITL ACETAC01
CELL 0.71073 13.31 4.09 5.769 90 90 90
ZERR 4 0.001 0.001 0.001 0 0 0
LATT -1
SYMM 1/2-x,1/2+y,1/2+z
SYMM 1/2+x,1/2-y,z
SYMM -x,-y,1/2+z
SFAC C H O
UNIT 8 16 8
FVAR 1.00
C1      1  0.165100  0.285800  0.170900  1.000000 0.05000
C2      1  0.089400  0.376200  0.348100  1.000000 0.05000
H1      2  0.181508  0.051522 -0.114929  1.000000 0.06000
H2      2  0.127103  0.506889  0.487678  1.000000 0.06000
H3      2  0.032648  0.541022  0.278569  1.000000 0.06000
H4      2  0.052220  0.163541  0.422561  1.000000 0.06000
O1      3  0.128700  0.107500  0.000000  1.000000 0.05000
O2      3  0.252900  0.370300  0.176900  1.000000 0.05000
END
