TITL DCLBEN01
CELL 0.71073 14.762 5.832 4.039 90 112.78 90
ZERR 1 0.003 0.002 0.002 0 0.02 0
LATT -1
SFAC C H Cl
UNIT 12 8 4
FVAR 1.00
Cl1     3  0.164990  0.178100  0.477500  1.000000 
C1      1  0.072400  0.359500  0.489200  1.000000 
C2      1  0.096900  0.560200  0.681600  1.000000 
H1      2  0.162500  0.599800  0.804400  1.000000 
C3      1 -0.023700  0.298500  0.309600  1.000000 
H2      2 -0.039400  0.161700  0.181700  1.000000 
C3B     1  0.023700  0.701500  0.690400  1.000000 
C1B     1 -0.072400  0.640500  0.510800  1.000000 
Cl1B    3 -0.164990  0.821900  0.522500  1.000000 
C2B     1 -0.096900  0.439800  0.318400  1.000000 
H1B     2 -0.162500  0.400200  0.195600  1.000000 
H2B     2  0.039400  0.838300  0.818300  1.000000 
Cl1     3  0.664990  0.321900  0.477500  1.000000 
C1      1  0.572400  0.140500  0.489200  1.000000 
C2      1  0.596900 -0.060200  0.681600  1.000000 
H1      2  0.662500 -0.099800  0.804400  1.000000 
C3      1  0.476300  0.201500  0.309600  1.000000 
H2      2  0.460600  0.338300  0.181700  1.000000 
C3B     1  0.523700 -0.201500  0.690400  1.000000 
C1B     1  0.427600 -0.140500  0.510800  1.000000 
Cl1B    3  0.335010 -0.321900  0.522500  1.000000 
C2B     1  0.403100  0.060200  0.318400  1.000000 
H1B     2  0.337500  0.099800  0.195600  1.000000 
H2B     2  0.539400 -0.338300  0.818300  1.000000 
END
