TITL C4H10N2O2
CELL 0.71073 5.036 18.211 6.9456 90 104.755 90
ZERR 4 0.000 0.000 0.0000 0.0 0.000 0.0
LATT 1
SYMM 1/2-x,1/2+y,1/2-z
SFAC C H N O
UNIT 16 40 8 8
FVAR 1.00
C1      1  0.634349  0.258088  0.064729  1.000000 0.05000
C2      1  0.645282  0.175309  0.058193  1.000000 0.05000
N1      3  0.692536  0.294056 -0.088745  1.000000 0.05000
O1      4  0.574870  0.289678  0.205136  1.000000 0.05000
H1      2  0.688957  0.350136 -0.092586  1.000000 0.06000
H2      2  0.739921  0.266008 -0.199459  1.000000 0.06000
H3      2  0.795959  0.156214  0.190090  1.000000 0.06000
H4      2  0.697462  0.154171 -0.073857  1.000000 0.06000
H5      2  0.446429  0.153819  0.064818  1.000000 0.06000
C3      1  0.887385  0.009642  0.691682  1.000000 0.05000
C4      1  1.175812  0.022042  0.817634  1.000000 0.05000
N2      3  0.748963  0.069599  0.607869  1.000000 0.05000
O2      4  0.788796 -0.052707  0.669381  1.000000 0.05000
H6      2  0.552708  0.064737  0.521239  1.000000 0.06000
H7      2  0.837600  0.119156  0.630355  1.000000 0.06000
H8      2  1.187991  0.002450  0.967490  1.000000 0.06000
H9      2  1.239548  0.079200  0.824060  1.000000 0.06000
H10     2  1.315780 -0.010952  0.757581  1.000000 0.06000
END
