TITL DNI_optx2.Cux2-QR-2-22582-4
CELL 0.7 6.18927 9.840571 10.516225 95.647393 110.16816 78.150052
LATT -1
SFAC C Cu N O H
C1    1       0.501756188932       0.051743611334       0.271920543044
C2    1       0.160539239176       0.156188234954       0.143671358312
C3    1       0.138451205155       0.029985438512       0.193705160724
C4    1       0.358183716897       0.556353161669       0.169319235065
C5    1       0.642919122072       0.457463408800       0.341510439923
C6    1       0.544008219742       0.593641555012       0.383303705579
N1    3       0.394547333363       0.159145811998       0.187850288773
N2    3       0.350572562828      -0.026942842213       0.277795024570
N3    3      -0.005078089179       0.258237488850       0.064450477563
N4    3      -0.031457545262      -0.045913689740       0.165839162396
N5    3       0.520175471745       0.439853489520       0.207958914431
N6    3       0.364402505188       0.647998855043       0.274638911116
N7    3       0.809206428982       0.349149015981       0.413195825696
N8    3       0.578810276306       0.669458123288       0.504149824469
O1    4      -0.226150853755       0.264351865125       0.044106090715
O2    4       0.058999807058       0.340866349809       0.010596722011
O3    4       0.701827595414       0.077261419866       0.054808952583
O4    4       0.969843611871      -0.086484753977       0.181295602970
O5    4       0.896934110480       0.359779609271       0.539942370845
O6    4       0.859872189455       0.241949458819       0.346639848007
O7    4       0.740300787043       0.632783383256       0.609726253171
O8    4       0.425238456957       0.780391052138       0.498159065402
H1    5       0.686321249748       0.028459877534       0.331498777772
H2    5       0.234651851606       0.576523092103       0.067831602061
Cu1   2       0.563495332347       0.262893191900       0.113601060782
Cu2   2       0.156383342033       0.806301420859       0.317279093340
C7    1       0.352613968934       1.011898878313       0.694220243338
C8    1       0.693830918689       0.907454254693       0.822469428070
C9    1       0.715918952710       1.033657051136       0.772435625658
C10   1       0.496186440968       0.507289327978       0.796821551316
C11   1       0.211451035794       0.606179080848       0.624630346459
C12   1       0.310361938123       0.470000934635       0.582837080803
N9    3       0.459822824503       0.904496677649       0.778290497609
N10   3       0.503797595038       1.090585331860       0.688345761811
N11   3       0.859448247044       0.805405000798       0.901690308819
N12   3       0.885827703128       1.109556179387       0.800301623986
N13   3       0.334194686121       0.623789000127       0.758181871950
N14   3       0.489967652678       0.415643634604       0.691501875265
N15   3       0.045163728884       0.714493473666       0.552944960686
N16   3       0.275559881559       0.394184366360       0.461990961913
O9    4       1.080521011620       0.799290624522       0.922034695666
O10   4       0.795370350808       0.722776139837       0.955544064371
O11   4       0.152542562452       0.986381069781       0.911331833799
O12   4      -0.115473454006       1.150127243624       0.784845183412
O13   4      -0.042563952614       0.703862880376       0.426198415536
O14   4      -0.005502031589       0.821693030828       0.619500938374
O15   4       0.114069370823       0.430859106391       0.356414533211
O16   4       0.429131700909       0.283251437509       0.467981720979
H3    5       0.168048908118       1.035182612113       0.634642008610
H4    5       0.619718306259       0.487119397544       0.898309184320
Cu3   2       0.290874825519       0.800749297747       0.852539725600
Cu4   2       0.697986815832       0.257341068789       0.648861693041
