TITL tcyety_example
CELL 0.7 104.0027 81.0697 54.4278 175.7945 1.8496 177.5199
ZERR 2
LATT 1
SFAC C N
C1 1 0.626338520 0.489686890 0.318101780 
C2 1 -0.550298430 -0.048763230 1.752492200 
C3 1 0.987238900 0.459792860 -0.421942410 
C4 1 1.373661610 1.010313240 -0.318101810 
C5 1 2.550298520 1.548763310 -1.752492230 
C6 1 1.012761190 1.040207230 0.421942390 
N1 2 -1.505735210 -0.489405090 2.911971890 
N2 2 1.261442970 0.425830390 -1.001513190 
N3 2 3.505735320 1.989405220 -2.911971920 
N4 2 0.738557200 1.074169790 1.001513140 
END
