TITL ACETAC01 ACETAC01
CELL 1.0 9.92687 6.00001 7.50178 90.0 90.0 90.0
ZERR 1 0.0 0.0 0.0 0.0 0.0 0.0
LATT -1
SFAC  C O H
C1 1     0.048386223    -0.010429983    -0.038806956 
C2 1    -0.053113041     0.051193248     0.097463369 
H1 3     0.071045934    -0.170484716    -0.259437260 
H2 3    -0.001357553     0.142399763     0.207355954 
H3 3    -0.128734057     0.162849729     0.044323980 
H4 3    -0.101917951    -0.090729849     0.153524730 
O1 2    -0.000418687    -0.131969780    -0.170231765 
O2 2     0.166109131     0.047171588    -0.034192052 
END