ACETAC01_A for dma                                                      
SP        RB3LYP                                                      6-311G(d,p)         
Number of atoms                            I                8
Info1-9                                    I   N=           9
          16          15           0           0           0         110
           1          18        -502
Charge                                     I                0
Multiplicity                               I                1
Number of electrons                        I               32
Number of alpha electrons                  I               16
Number of beta electrons                   I               16
Number of basis functions                  I               96
Number of independent functions            I               96
Number of point charges in /Mol/           I                0
Number of translation vectors              I                0
Atomic numbers                             I   N=           8
           6           6           1           1           1           1
           8           8
Nuclear charges                            R   N=           8
  6.00000000E+00  6.00000000E+00  1.00000000E+00  1.00000000E+00  1.00000000E+00
  1.00000000E+00  8.00000000E+00  8.00000000E+00
Current cartesian coordinates              R   N=          24
 -7.68937973E-02  1.32928763E-01 -1.15432522E-02  2.72407363E+00  1.32928763E-01
 -1.15432522E-02 -2.97571772E+00 -2.07014169E+00 -1.15432522E-02  3.39651059E+00
  2.12438613E+00 -1.56245044E-01  3.48463711E+00 -6.20756712E-01  1.73090477E+00
  3.49314916E+00 -8.99620394E-01 -1.56126489E+00 -1.08327790E+00 -2.14646974E+00
 -8.60468275E-03 -1.37005202E+00  2.03925565E+00  2.58190050E-02
Force Field                                I                0
Int Atom Types                             I   N=           8
           0           0           0           0           0           0
           0           0
MM charges                                 R   N=           8
  0.00000000E+00  0.00000000E+00  0.00000000E+00  0.00000000E+00  0.00000000E+00
  0.00000000E+00  0.00000000E+00  0.00000000E+00
Integer atomic weights                     I   N=           8
          12          12           1           1           1           1
          16          16
Real atomic weights                        R   N=           8
  1.20000000E+01  1.20000000E+01  1.00782504E+00  1.00782504E+00  1.00782504E+00
  1.00782504E+00  1.59949146E+01  1.59949146E+01
Atom fragment info                         I   N=           8
           0           0           0           0           0           0
           0           0
Atom residue num                           I   N=           8
           0           0           0           0           0           0
           0           0
Nuclear spins                              I   N=           8
           0           0           1           1           1           1
           0           0
Nuclear ZEff                               R   N=           8
 -3.60000000E+00 -3.60000000E+00 -1.00000000E+00 -1.00000000E+00 -1.00000000E+00
 -1.00000000E+00 -5.60000000E+00 -5.60000000E+00
Nuclear ZNuc                               R   N=           8
  6.00000000E+00  6.00000000E+00  1.00000000E+00  1.00000000E+00  1.00000000E+00
  1.00000000E+00  8.00000000E+00  8.00000000E+00
Nuclear QMom                               R   N=           8
  0.00000000E+00  0.00000000E+00  0.00000000E+00  0.00000000E+00  0.00000000E+00
  0.00000000E+00  0.00000000E+00  0.00000000E+00
Nuclear GFac                               R   N=           8
  0.00000000E+00  0.00000000E+00  2.79284600E+00  2.79284600E+00  2.79284600E+00
  2.79284600E+00  0.00000000E+00  0.00000000E+00
MicOpt                                     I   N=           8
          -1          -1          -1          -1          -1          -1
          -1          -1
Number of contracted shells                I               36
Number of primitive shells                 I               72
Pure/Cartesian d shells                    I                0
Pure/Cartesian f shells                    I                0
Highest angular momentum                   I                2
Largest degree of contraction              I                6
Shell types                                I   N=          36
           0          -1          -1          -1          -2           0
          -1          -1          -1          -2           0           0
           0           1           0           0           0           1
           0           0           0           1           0           0
           0           1           0          -1          -1          -1
          -2           0          -1          -1          -1          -2
Number of primitives per shell             I   N=          36
           6           3           1           1           1           6
           3           1           1           1           3           1
           1           1           3           1           1           1
           3           1           1           1           3           1
           1           1           6           3           1           1
           1           6           3           1           1           1
Shell to atom map                          I   N=          36
           1           1           1           1           1           2
           2           2           2           2           3           3
           3           3           4           4           4           4
           5           5           5           5           6           6
           6           6           7           7           7           7
           7           8           8           8           8           8
Primitive exponents                        R   N=          72
  4.56324000E+03  6.82024000E+02  1.54973000E+02  4.44553000E+01  1.30290000E+01
  1.82773000E+00  2.09642000E+01  4.80331000E+00  1.45933000E+00  4.83456000E-01
  1.45585000E-01  6.26000000E-01  4.56324000E+03  6.82024000E+02  1.54973000E+02
  4.44553000E+01  1.30290000E+01  1.82773000E+00  2.09642000E+01  4.80331000E+00
  1.45933000E+00  4.83456000E-01  1.45585000E-01  6.26000000E-01  3.38650000E+01
  5.09479000E+00  1.15879000E+00  3.25840000E-01  1.02741000E-01  7.50000000E-01
  3.38650000E+01  5.09479000E+00  1.15879000E+00  3.25840000E-01  1.02741000E-01
  7.50000000E-01  3.38650000E+01  5.09479000E+00  1.15879000E+00  3.25840000E-01
  1.02741000E-01  7.50000000E-01  3.38650000E+01  5.09479000E+00  1.15879000E+00
  3.25840000E-01  1.02741000E-01  7.50000000E-01  8.58850000E+03  1.29723000E+03
  2.99296000E+02  8.73771000E+01  2.56789000E+01  3.74004000E+00  4.21175000E+01
  9.62837000E+00  2.85332000E+00  9.05661000E-01  2.55611000E-01  1.29200000E+00
  8.58850000E+03  1.29723000E+03  2.99296000E+02  8.73771000E+01  2.56789000E+01
  3.74004000E+00  4.21175000E+01  9.62837000E+00  2.85332000E+00  9.05661000E-01
  2.55611000E-01  1.29200000E+00
Contraction coefficients                   R   N=          72
  1.96665025E-03  1.52306019E-02  7.61269097E-02  2.60801033E-01  6.16462078E-01
  2.21006028E-01  1.14660081E-01  9.19999648E-01 -3.03068213E-03  1.00000000E+00
  1.00000000E+00  1.00000000E+00  1.96665025E-03  1.52306019E-02  7.61269097E-02
  2.60801033E-01  6.16462078E-01  2.21006028E-01  1.14660081E-01  9.19999648E-01
 -3.03068213E-03  1.00000000E+00  1.00000000E+00  1.00000000E+00  2.54938145E-02
  1.90373109E-01  8.52161486E-01  1.00000000E+00  1.00000000E+00  1.00000000E+00
  2.54938145E-02  1.90373109E-01  8.52161486E-01  1.00000000E+00  1.00000000E+00
  1.00000000E+00  2.54938145E-02  1.90373109E-01  8.52161486E-01  1.00000000E+00
  1.00000000E+00  1.00000000E+00  2.54938145E-02  1.90373109E-01  8.52161486E-01
  1.00000000E+00  1.00000000E+00  1.00000000E+00  1.89515008E-03  1.43859006E-02
  7.07320031E-02  2.40001011E-01  5.94797026E-01  2.80802012E-01  1.13889012E-01
  9.20811101E-01 -3.27447036E-03  1.00000000E+00  1.00000000E+00  1.00000000E+00
  1.89515008E-03  1.43859006E-02  7.07320031E-02  2.40001011E-01  5.94797026E-01
  2.80802012E-01  1.13889012E-01  9.20811101E-01 -3.27447036E-03  1.00000000E+00
  1.00000000E+00  1.00000000E+00
P(S=P) Contraction coefficients            R   N=          72
  0.00000000E+00  0.00000000E+00  0.00000000E+00  0.00000000E+00  0.00000000E+00
  0.00000000E+00  4.02486927E-02  2.37593957E-01  8.15853851E-01  1.00000000E+00
  1.00000000E+00  0.00000000E+00  0.00000000E+00  0.00000000E+00  0.00000000E+00
  0.00000000E+00  0.00000000E+00  0.00000000E+00  4.02486927E-02  2.37593957E-01
  8.15853851E-01  1.00000000E+00  1.00000000E+00  0.00000000E+00  0.00000000E+00
  0.00000000E+00  0.00000000E+00  0.00000000E+00  0.00000000E+00  0.00000000E+00
  0.00000000E+00  0.00000000E+00  0.00000000E+00  0.00000000E+00  0.00000000E+00
  0.00000000E+00  0.00000000E+00  0.00000000E+00  0.00000000E+00  0.00000000E+00
  0.00000000E+00  0.00000000E+00  0.00000000E+00  0.00000000E+00  0.00000000E+00
  0.00000000E+00  0.00000000E+00  0.00000000E+00  0.00000000E+00  0.00000000E+00
  0.00000000E+00  0.00000000E+00  0.00000000E+00  0.00000000E+00  3.65113974E-02
  2.37152983E-01  8.19701941E-01  1.00000000E+00  1.00000000E+00  0.00000000E+00
  0.00000000E+00  0.00000000E+00  0.00000000E+00  0.00000000E+00  0.00000000E+00
  0.00000000E+00  3.65113974E-02  2.37152983E-01  8.19701941E-01  1.00000000E+00
  1.00000000E+00  0.00000000E+00
Coordinates of each shell                  R   N=         108
 -7.68937973E-02  1.32928763E-01 -1.15432522E-02 -7.68937973E-02  1.32928763E-01
 -1.15432522E-02 -7.68937973E-02  1.32928763E-01 -1.15432522E-02 -7.68937973E-02
  1.32928763E-01 -1.15432522E-02 -7.68937973E-02  1.32928763E-01 -1.15432522E-02
  2.72407363E+00  1.32928763E-01 -1.15432522E-02  2.72407363E+00  1.32928763E-01
 -1.15432522E-02  2.72407363E+00  1.32928763E-01 -1.15432522E-02  2.72407363E+00
  1.32928763E-01 -1.15432522E-02  2.72407363E+00  1.32928763E-01 -1.15432522E-02
 -2.97571772E+00 -2.07014169E+00 -1.15432522E-02 -2.97571772E+00 -2.07014169E+00
 -1.15432522E-02 -2.97571772E+00 -2.07014169E+00 -1.15432522E-02 -2.97571772E+00
 -2.07014169E+00 -1.15432522E-02  3.39651059E+00  2.12438613E+00 -1.56245044E-01
  3.39651059E+00  2.12438613E+00 -1.56245044E-01  3.39651059E+00  2.12438613E+00
 -1.56245044E-01  3.39651059E+00  2.12438613E+00 -1.56245044E-01  3.48463711E+00
 -6.20756712E-01  1.73090477E+00  3.48463711E+00 -6.20756712E-01  1.73090477E+00
  3.48463711E+00 -6.20756712E-01  1.73090477E+00  3.48463711E+00 -6.20756712E-01
  1.73090477E+00  3.49314916E+00 -8.99620394E-01 -1.56126489E+00  3.49314916E+00
 -8.99620394E-01 -1.56126489E+00  3.49314916E+00 -8.99620394E-01 -1.56126489E+00
  3.49314916E+00 -8.99620394E-01 -1.56126489E+00 -1.08327790E+00 -2.14646974E+00
 -8.60468275E-03 -1.08327790E+00 -2.14646974E+00 -8.60468275E-03 -1.08327790E+00
 -2.14646974E+00 -8.60468275E-03 -1.08327790E+00 -2.14646974E+00 -8.60468275E-03
 -1.08327790E+00 -2.14646974E+00 -8.60468275E-03 -1.37005202E+00  2.03925565E+00
  2.58190050E-02 -1.37005202E+00  2.03925565E+00  2.58190050E-02 -1.37005202E+00
  2.03925565E+00  2.58190050E-02 -1.37005202E+00  2.03925565E+00  2.58190050E-02
 -1.37005202E+00  2.03925565E+00  2.58190050E-02
Constraint Structure                       R   N=          24
 -7.68937973E-02  1.32928763E-01 -1.15432522E-02  2.72407363E+00  1.32928763E-01
 -1.15432522E-02 -2.97571772E+00 -2.07014169E+00 -1.15432522E-02  3.39651059E+00
  2.12438613E+00 -1.56245044E-01  3.48463711E+00 -6.20756712E-01  1.73090477E+00
  3.49314916E+00 -8.99620394E-01 -1.56126489E+00 -1.08327790E+00 -2.14646974E+00
 -8.60468275E-03 -1.37005202E+00  2.03925565E+00  2.58190050E-02
Num ILSW                                   I              100
ILSW                                       I   N=         100
           0           0           0           0           2           0
           0           0           0           0         402          -1
           0           0           0           0           0           0
           0           0           1           0           0           0
           1           1           0           0           0           0
           0           0      100000           0          -1           0
           0           0           0           0           0           0
           0           0           0           1           0           0
           0           0           1           0           0           0
           0           0           4          41           0           0
           0           0           5           0           0           0
           0           0           0           0           0           0
           0           0           0           0           0           0
           0           0           0           0           0           0
           0           0           0           0           0           0
           0           0           0           0           0           0
           0           0           0           0
Num RLSW                                   I               41
RLSW                                       R   N=          41
  8.00000000E-01  7.20000000E-01  1.00000000E+00  8.10000000E-01  2.00000000E-01
  0.00000000E+00  0.00000000E+00  1.00000000E+00  0.00000000E+00  0.00000000E+00
  0.00000000E+00  0.00000000E+00  1.00000000E+00  0.00000000E+00  0.00000000E+00
  0.00000000E+00  0.00000000E+00  1.00000000E+00  0.00000000E+00  0.00000000E+00
  0.00000000E+00  0.00000000E+00  1.00000000E+00  0.00000000E+00  0.00000000E+00
  0.00000000E+00  0.00000000E+00  1.00000000E+00  0.00000000E+00  0.00000000E+00
  0.00000000E+00  0.00000000E+00  1.00000000E+00  0.00000000E+00  0.00000000E+00
  0.00000000E+00  0.00000000E+00  0.00000000E+00  1.00000000E+00  1.00000000E+00
  0.00000000E+00
MxBond                                     I                4
NBond                                      I   N=           8
           3           4           1           1           1           1
           2           1
IBond                                      I   N=          32
           2           7           8           0           1           4
           5           6           7           0           0           0
           2           0           0           0           2           0
           0           0           2           0           0           0
           1           3           0           0           1           0
           0           0
RBond                                      R   N=          32
  1.00000000E+00  1.00000000E+00  2.00000000E+00  0.00000000E+00  1.00000000E+00
  1.00000000E+00  1.00000000E+00  1.00000000E+00  1.00000000E+00  0.00000000E+00
  0.00000000E+00  0.00000000E+00  1.00000000E+00  0.00000000E+00  0.00000000E+00
  0.00000000E+00  1.00000000E+00  0.00000000E+00  0.00000000E+00  0.00000000E+00
  1.00000000E+00  0.00000000E+00  0.00000000E+00  0.00000000E+00  1.00000000E+00
  1.00000000E+00  0.00000000E+00  0.00000000E+00  2.00000000E+00  0.00000000E+00
  0.00000000E+00  0.00000000E+00
Virial Ratio                               R      2.002956208444658E+00
SCF Energy                                 R     -2.291517598799670E+02
Total Energy                               R     -2.291517598799670E+02
RMS Density                                R      6.084323885802141E-09
External E-field                           R   N=          35
  0.00000000E+00  0.00000000E+00  0.00000000E+00  0.00000000E+00  0.00000000E+00
  0.00000000E+00  0.00000000E+00  0.00000000E+00  0.00000000E+00  0.00000000E+00
  0.00000000E+00  0.00000000E+00  0.00000000E+00  0.00000000E+00  0.00000000E+00
  0.00000000E+00  0.00000000E+00  0.00000000E+00  0.00000000E+00  0.00000000E+00
  0.00000000E+00  0.00000000E+00  0.00000000E+00  0.00000000E+00  0.00000000E+00
  0.00000000E+00  0.00000000E+00  0.00000000E+00  0.00000000E+00  0.00000000E+00
  0.00000000E+00  0.00000000E+00  0.00000000E+00  0.00000000E+00  0.00000000E+00
IOpCl                                      I                0
IROHF                                      I                0
Alpha Orbital Energies                     R   N=          96
 -1.91725772E+01 -1.90992859E+01 -1.03039488E+01 -1.01825582E+01 -1.11615533E+00
 -1.01212222E+00 -7.67278603E-01 -6.27674131E-01 -4.97213368E-01 -4.81717236E-01
 -4.79706616E-01 -4.09447478E-01 -4.02733783E-01 -3.91403159E-01 -3.21035599E-01
 -2.75644432E-01  5.56661433E-03  2.44674223E-02  6.07516421E-02  1.05880203E-01
  1.17049427E-01  2.04203831E-01  2.45159582E-01  2.86800170E-01  3.17996685E-01
  3.28358233E-01  3.60075932E-01  4.29465694E-01  4.54140738E-01  4.86348051E-01
  5.43515776E-01  5.62446971E-01  5.70612034E-01  6.08559789E-01  6.50664042E-01
  7.48844431E-01  7.62906505E-01  7.96829823E-01  8.14255033E-01  8.79990088E-01
  9.40668009E-01  1.01434935E+00  1.03027661E+00  1.17344655E+00  1.23098362E+00
  1.37515947E+00  1.41409820E+00  1.43540008E+00  1.44846735E+00  1.46919296E+00
  1.48117811E+00  1.50092684E+00  1.51160214E+00  1.55024479E+00  1.73340839E+00
  1.73857160E+00  1.81061741E+00  1.82573919E+00  1.86473345E+00  2.02101893E+00
  2.05119916E+00  2.19444846E+00  2.31931775E+00  2.35818260E+00  2.40718868E+00
  2.41811966E+00  2.48081711E+00  2.48999422E+00  2.52106141E+00  2.62232083E+00
  2.76735107E+00  2.87206738E+00  2.89718759E+00  2.98899192E+00  3.02498175E+00
  3.09682264E+00  3.17559042E+00  3.19720104E+00  3.33942631E+00  3.49210640E+00
  3.55574183E+00  3.74096595E+00  3.80621439E+00  3.83752217E+00  3.90451939E+00
  4.11373405E+00  4.78169966E+00  4.89561885E+00  4.99840515E+00  5.20491469E+00
  5.51825543E+00  5.74284975E+00  2.37657487E+01  2.39295623E+01  4.98202517E+01
  4.99787909E+01
Alpha MO coefficients                      R   N=        9216
  1.90584480E-06 -3.44393995E-06 -1.25544097E-04 -3.04653631E-04  1.32537702E-06
  4.03853366E-04  2.05463042E-04  4.18792847E-04 -2.80731284E-06  2.21579509E-03
 -2.27831452E-03 -4.02860507E-03 -1.60162628E-05 -4.81354693E-05 -1.43515999E-05
  4.89785088E-07  5.44913103E-04 -4.25507738E-04 -5.86209055E-06  3.41069407E-05
 -8.86399499E-05 -3.80689761E-05  1.57249146E-06 -2.92851005E-04  6.63270406E-04
  9.76575961E-05 -4.21986847E-06  2.34163868E-03 -7.02187346E-04  6.11068309E-04
  1.08493062E-04  1.05933787E-04  9.99067182E-07  1.36827227E-05 -2.78899976E-04
 -1.56908254E-04  7.43525709E-05 -2.34124495E-04 -7.00850038E-05 -7.05136028E-04
  1.54050357E-04 -2.12490431E-07 -3.22742104E-05 -4.26920847E-04  1.58502334E-04
 -9.36290461E-05  1.31008524E-04 -2.74188647E-05  8.58330179E-05 -6.68603130E-04
 -9.01082048E-05  1.70168070E-04 -6.90807250E-05  1.47515070E-04  5.61078605E-05
 -5.98255309E-04  1.14160428E-05  1.74887731E-04 -8.44426719E-05 -1.35574656E-04
  5.51297649E-01  4.69764767E-01 -6.65429106E-04  9.70085382E-04 -1.64986341E-06
  1.33757571E-02  1.48712168E-04  4.99619066E-04 -3.07773070E-06 -8.66809125E-03
 -1.03392400E-03 -2.14534477E-03  6.76348068E-06 -1.53232865E-04  2.65132788E-08
 -6.30775373E-07  1.25634761E-04  9.87062703E-05 -9.61368786E-05 -3.24680284E-05
  3.86986555E-05 -3.21178763E-05 -1.95029954E-06 -3.50579466E-04 -1.97894810E-04
  1.76077964E-04  8.21346966E-06  6.79022744E-04  9.06461036E-04  5.04529112E-04
 -1.35987437E-05  5.50862162E-06 -3.72666751E-06 -3.04661837E-06  1.89090709E-04
  1.17692375E-05 -2.51299935E-05  9.94717523E-05 -2.37419841E-04  3.33749182E-04
  5.70293446E-06  4.07305726E-04  7.48762744E-04 -9.55758410E-04 -1.65406862E-05
  2.82648112E-03 -3.51362168E-03  4.21699309E-03  8.75067168E-05  2.24876417E-04
  1.11618323E-05 -1.93857948E-05  4.61073926E-04  1.03061437E-03 -8.93793227E-06
  4.63279492E-05 -7.50679459E-05  6.07062300E-05  6.18683551E-06 -1.68621935E-04
  4.41411877E-04 -2.20032724E-04 -2.69738145E-05  1.71842157E-03 -5.81371678E-04
 -1.30180393E-03 -1.04306504E-05  4.42007989E-05 -2.26241218E-06  1.43202582E-05
 -2.54252222E-04  2.73948336E-04 -2.75542498E-05  6.30150587E-04 -2.28582864E-04
  1.35612907E-04 -9.56566555E-05  4.88930830E-06 -7.37709678E-05  1.45300068E-04
  2.19309978E-04  5.99359855E-05  5.10447062E-05  2.66327121E-06  5.08425665E-06
 -1.82743895E-04 -1.29930464E-04 -3.45203572E-05  6.95757307E-05  8.59904561E-05
 -9.66885455E-06 -2.57687835E-04 -1.11147155E-04 -4.07863710E-05  4.93960858E-05
 -1.13912649E-04  1.00897617E-04  1.33382187E-04  2.77252579E-05  5.29451320E-05
 -1.84754257E-06 -2.53327533E-04 -1.46349611E-04 -2.34073800E-04  7.17110016E-06
  2.19333072E-04  1.28096623E-03 -4.26768698E-04 -2.96242336E-05  7.76303346E-05
 -2.78955347E-06 -1.58896512E-06  1.50072401E-04  1.57126548E-05  5.51289893E-01
  4.69761460E-01  5.92756994E-04 -9.77147729E-04 -1.86749261E-05  1.36199009E-02
  5.24127571E-04 -7.73728204E-04 -1.84077391E-05 -9.69575549E-03 -1.11734957E-03
  1.83794581E-03  3.97478417E-05 -1.64519616E-04 -5.72094458E-06  8.11117079E-06
 -1.02942814E-04 -2.74264913E-04  5.62984132E-01  4.63480000E-01 -5.38620398E-04
 -7.38874322E-04 -1.24727802E-05  1.68901717E-02 -2.19590410E-04  1.50531873E-03
  5.66759623E-05 -3.48131239E-03 -6.46129250E-03  4.02802936E-04  3.26944376E-05
 -1.85973469E-03 -3.82926399E-05  3.99305252E-05 -1.93005232E-04 -9.83477833E-04
  6.42131127E-04  5.84319987E-04 -7.46170118E-04  1.51728364E-05 -1.05074471E-05
  2.44271313E-05  2.62015808E-03 -1.89222565E-04  3.59208530E-05  5.82095557E-03
 -2.71305953E-03 -3.79360815E-05 -1.23343126E-05  8.97360110E-04  4.80079294E-06
  2.26760663E-05 -1.12997836E-03 -1.67703389E-04  3.85145573E-05  9.05947949E-04
 -5.69889116E-04  3.25424384E-04  1.40367382E-04  2.65346455E-06 -4.86472614E-05
 -7.95179022E-04  3.52020612E-04 -4.69540240E-05  3.20684729E-04 -2.03572974E-05
 -1.49763477E-04 -1.14051536E-03  4.96352313E-04  7.55266008E-05 -2.31156468E-04
  4.73835123E-04 -1.58536120E-04 -1.13671006E-03  4.83013141E-04  6.91526424E-05
 -3.09912475E-04 -4.13827014E-04 -4.18098883E-05 -8.32241466E-05  1.50267965E-04
  2.58752158E-04 -9.44302051E-07  8.76450711E-04 -2.94194590E-04 -3.45249009E-04
  3.24304751E-06 -3.66983935E-03  5.81137499E-04 -2.32940080E-03 -4.86725973E-06
  4.97937056E-04  1.60540432E-06  1.35031668E-06  2.31459531E-04 -3.76437764E-04
 -8.82178134E-05 -6.71989220E-05  3.50194966E-04 -4.20772417E-04 -8.27719965E-06
  5.45524052E-04 -1.15332086E-03  1.31170704E-03  2.66514130E-05 -6.09814806E-03
 -6.45401540E-04  2.92990182E-03  5.39382077E-05  5.90432263E-04  1.64801145E-05
 -2.73884337E-05  3.78583549E-04  7.93200237E-04 -6.84246296E-04 -5.16617081E-04
  6.34205799E-04 -7.94231008E-07 -1.19340752E-06 -5.20343470E-07 -1.74612470E-03
  7.93499180E-05  5.04952689E-06  1.91479108E-03  9.45732115E-04  2.23065073E-04
  2.94797350E-05  2.04049612E-04 -3.67584744E-06 -7.99013653E-08 -1.03493052E-03
 -7.77737976E-05  5.62895734E-01  4.63202487E-01 -3.00230053E-04 -7.30641790E-05
  1.97046630E-05  1.90596567E-02  1.40400749E-03 -4.32599046E-04 -1.45088165E-04
 -6.78486441E-03  9.42722693E-04 -4.91036646E-05 -2.56739903E-05  4.67362191E-04
 -5.24703702E-05  1.53198965E-04 -2.20492077E-04 -2.66867682E-04 -6.04037239E-05
  5.74315815E-04  4.04594565E-05  1.28519618E-04  4.48945454E-05  1.75220671E-06
  1.91795980E-04 -2.24812048E-03  1.27965595E-03  4.68189329E-04  1.76306147E-03
 -1.25541077E-04  5.06641281E-05 -2.88204161E-03  1.51743036E-03  6.79648708E-04
 -8.39038270E-04  1.93160097E-03 -1.55556411E-05 -3.26188918E-03  1.64924838E-03
  7.75342265E-04 -1.26646841E-03 -1.89063280E-03  5.19795390E-06  2.98679025E-05
  4.05027527E-05  5.61963444E-05 -1.20176051E-06 -1.13731579E-04 -1.83354886E-04
 -2.71317061E-04  5.12734090E-06 -5.71373004E-04  4.17810108E-04 -1.04265331E-04
 -1.21265444E-05  7.26645419E-05 -2.13268880E-08 -1.53239458E-06  4.06390754E-05
 -9.54689051E-05  5.20640581E-06  3.58447824E-05  6.22524609E-05 -3.68971352E-05
 -2.49117151E-06 -2.03314725E-04 -3.23922795E-04  2.41679833E-04  1.15462801E-05
 -5.23171324E-04 -1.09896238E-04  1.34318975E-04 -8.63427469E-06  3.08580932E-05
  4.32010343E-06 -1.41620755E-06 -1.20304670E-05  1.61202484E-04 -6.48573846E-02
 -9.91470490E-02 -4.36070306E-02 -1.80275836E-02  7.13554011E-04  2.63346626E-01
 -6.14685244E-02 -3.46711000E-02  8.59969997E-04  5.40086117E-02  2.22314209E-02
  5.36199401E-03 -1.90535003E-04 -1.76588520E-02 -1.79254381E-04  2.45864468E-04
 -1.46982060E-02  5.98156829E-03 -9.41515533E-03 -1.45227888E-02 -9.97510898E-03
 -1.33187705E-03 -2.52800868E-05  3.91167394E-02 -2.13374660E-02 -2.74418385E-03
  2.83757571E-04 -1.13534744E-02  6.85988160E-03 -1.75064565E-03 -2.09223514E-04
 -1.82221123E-03  1.14062042E-05 -5.36469594E-05  5.15081416E-03  7.79474388E-04
  6.36429245E-02  5.01732248E-02  1.63475282E-03  1.91943242E-02  2.65898869E-03
  1.52358946E-05  3.15704840E-03  6.83874255E-03 -2.38353938E-03 -9.01716351E-04
 -1.93796951E-03  2.02397994E-04  3.32007419E-03  6.69600927E-03 -3.32006213E-04
 -1.18125517E-03  2.83507721E-04 -1.42918756E-03  3.63729142E-03  7.03224755E-03
 -8.46029102E-04 -1.34479381E-03  5.35791184E-04  1.51520423E-03 -9.43692927E-02
 -1.50984503E-01 -8.09722511E-03  4.91295981E-02 -5.17311744E-05  4.37341526E-01
 -1.35568426E-02  7.51609764E-02 -7.65595536E-05  2.97320610E-01 -4.26296412E-03
  3.58551563E-02 -1.21575512E-05 -7.97751486E-03  2.66167934E-05 -2.15204305E-05
 -2.86234120E-03  3.69036269E-03 -4.76934742E-02 -7.61191893E-02  1.77175553E-02
 -3.57961862E-02 -5.79738863E-04  2.17884610E-01  2.67307669E-02 -5.34288397E-02
 -8.64123106E-04  1.41872997E-01  4.86508822E-03 -2.43424518E-02 -2.86254554E-04
 -3.82488178E-03 -6.96426315E-05  2.07066723E-04 -5.37415872E-03 -6.49746383E-03
 -3.34116615E-02 -5.05753470E-02 -3.11470549E-02  1.09523763E-01  1.43116346E-03
  1.37011464E-01 -3.65238182E-02  1.44595548E-01  1.82949451E-03  2.89902110E-02
 -1.40069285E-03 -8.55627722E-03 -1.45238970E-04 -6.22678842E-03 -4.26421001E-04
  6.12374993E-04  1.17780415E-03 -3.11414071E-02 -4.79060036E-03 -7.33104980E-03
 -5.07443871E-03  5.63619209E-03  7.38164931E-05  1.86113573E-02 -6.60753995E-03
  1.03498885E-02  2.18751508E-04  1.13091758E-02 -2.37493477E-03  9.69923426E-03
  3.73654073E-04 -3.67992406E-04 -4.25804681E-05 -1.05832432E-04  6.61897692E-04
 -5.11937536E-03 -4.69023219E-02 -4.28491119E-02 -1.55380168E-03 -1.41527638E-02
  1.11072026E-03 -7.66414332E-06  4.82431058E-03  1.77502102E-03 -4.22747966E-04
 -9.14955608E-04 -4.84637611E-04  3.24645213E-05  1.05134339E-03 -1.78750440E-05
 -2.29262925E-04  1.79674369E-04 -6.03193717E-05  9.46681142E-05  5.88368646E-04
  1.23901531E-04 -4.74943808E-05  2.07074126E-04 -9.11732273E-05 -8.46494715E-05
  6.35120782E-02  1.01863267E-01  8.88476601E-03 -1.49842873E-02  1.97262194E-04
 -2.96920134E-01  1.46697636E-02 -2.26544505E-02  2.85598143E-04 -2.19792998E-01
 -3.28079934E-03 -1.04839986E-02  2.73271404E-04  3.83363605E-03  7.31721627E-06
  7.80966637E-05 -2.66590592E-03 -3.52234834E-03 -9.62425991E-02 -1.53876046E-01
  3.97831190E-02 -5.21456996E-02 -1.08759289E-03  4.41437413E-01  5.71138393E-02
 -7.40188182E-02 -1.53619962E-03  3.10340247E-01  2.43016822E-02 -2.92121478E-02
 -6.53169111E-04 -5.86787420E-03 -2.26107395E-04  3.22550281E-04 -2.95486244E-03
 -1.24412195E-02 -4.20546991E-02 -6.61174923E-02  8.83786866E-02 -2.75272105E-02
 -4.55413576E-04  1.87990943E-01  1.29232842E-01 -3.85827121E-02 -6.10967622E-04
  1.09950624E-01  5.82080582E-02 -1.09906997E-02  1.83573204E-05 -5.21506369E-03
  1.31533957E-04 -5.25402037E-05  5.79803758E-03  3.79731173E-04 -9.71038486E-02
 -1.50346550E-01 -2.26307081E-02 -6.17521215E-03 -3.69274036E-04  3.96338334E-01
 -4.49733186E-02 -8.17398751E-03 -8.52896268E-05  1.86989624E-01  8.02250911E-03
 -2.09332768E-03 -6.49083731E-04 -3.18582426E-03  1.16534451E-05  2.65541557E-04
  7.49533043E-03  1.00372687E-03 -5.03327885E-02 -5.23974123E-02 -7.66636997E-03
 -1.06531847E-02  2.49508539E-04 -1.87299248E-05  6.17138670E-02  7.35760537E-02
 -2.90752166E-04 -5.07224264E-03 -1.34679129E-02  9.57098697E-04  6.94436432E-02
  8.41673822E-02  7.73087040E-04 -7.22010269E-03  5.21339554E-03 -1.27447676E-02
  7.17622722E-02  8.54033008E-02  2.55901020E-04 -7.44289356E-03  7.50030174E-03
  1.17078063E-02  1.61426018E-02  2.60857550E-02  6.09192405E-02  1.85183576E-02
 -1.00940188E-04 -7.84037639E-02  9.02726128E-02  2.55477526E-02 -1.37051951E-04
 -6.99306434E-02  4.48702776E-02  1.57540460E-02 -1.65934745E-04  3.04305365E-04
 -2.95270144E-05 -1.97216640E-05 -2.79152315E-03  6.17003490E-03  2.40365757E-02
  3.88489089E-02  1.27412950E-02  8.77685605E-03  1.38641526E-04 -1.15400044E-01
  1.88507750E-02  1.43936441E-02  2.64097783E-04 -9.17179925E-02  8.56754259E-03
  1.81661233E-03 -6.52927625E-05  4.32260732E-04 -3.66735300E-06 -1.02276665E-04
  3.74667582E-03 -1.40139242E-04 -4.93157824E-02 -7.80441262E-02 -2.08413269E-02
 -9.16763279E-02 -8.10324845E-05  2.33104942E-01 -3.78889666E-02 -1.35936343E-01
 -8.07701023E-05  1.25430964E-01  1.70927089E-03 -3.61108753E-02 -9.90731055E-05
 -7.64968531E-03 -3.50128993E-05 -2.93259305E-05 -2.10295978E-02  4.12840751E-03
  4.43395344E-02  6.90234170E-02 -5.02209889E-02 -1.67702157E-02  3.99260235E-05
 -1.82048791E-01 -7.56588366E-02 -2.43243082E-02 -1.08821995E-04 -1.40829549E-01
 -2.52170167E-02 -1.14118562E-02 -3.45885677E-04 -5.33214429E-03 -1.91248876E-05
 -1.01605856E-04  9.68546405E-03  4.09346337E-03 -1.29269387E-01 -1.55864807E-01
 -4.73529857E-02 -2.32717747E-02  8.45993388E-03 -3.25977798E-05 -5.74398225E-02
 -6.88593376E-02 -1.36897114E-02  1.47658783E-03  8.85025290E-03 -6.76639251E-04
 -4.85357919E-02 -5.59812813E-02 -1.15514716E-02 -1.69587461E-04 -4.07616829E-03
  6.54058553E-03 -4.80953301E-02 -5.47815328E-02 -1.18980466E-02 -3.58022237E-04
 -5.09832091E-03 -5.67562219E-03  1.54057529E-02  2.48247474E-02  1.63925433E-01
  1.14137841E-01 -4.04800989E-05 -7.27665328E-02  2.39666038E-01  1.63611975E-01
 -4.37407321E-05 -8.43564061E-02  1.38427533E-01  9.78874547E-02 -7.41607822E-05
 -8.23725551E-04 -3.56415395E-05 -3.29263365E-05 -1.76736362E-02  1.03742558E-02
  1.45195768E-02  2.35565677E-02 -3.20902134E-03 -2.16476814E-02 -4.82799105E-05
 -6.95397823E-02 -7.08250497E-03 -2.98836053E-02  1.20860738E-05 -7.31567905E-02
 -3.52059935E-03 -2.02379683E-02 -5.74430802E-05  1.07300203E-05  9.09090974E-05
 -1.72933771E-06 -4.43490015E-03  6.64243456E-04 -4.27364376E-02 -6.76573742E-02
  1.08333301E-01  9.61772460E-02  3.13686413E-03  2.02928932E-01  1.53332307E-01
  1.41611315E-01  4.94343771E-03  1.44064878E-01  1.38698426E-01  1.56014696E-02
  1.96989733E-03  1.79804740E-03  3.02241979E-04 -4.17171778E-05  5.55575969E-04
 -8.67226534E-04  1.47577899E-02  2.29834085E-02 -1.34641269E-01  5.99403891E-02
  5.76995571E-03 -5.54807900E-02 -1.98051807E-01  8.55509356E-02  7.76450674E-03
 -1.22735256E-01 -7.76647632E-02  6.20250932E-02  4.77194799E-03 -1.41286782E-02
  1.40881484E-04 -1.90758052E-03  1.55957185E-02 -2.04145942E-03  4.12055056E-02
  4.62868220E-02  2.50962867E-02  4.07777510E-03 -7.76995372E-03  1.75016366E-04
 -6.75913488E-03 -5.34067679E-03 -1.25842046E-02 -8.72651190E-03  2.70793593E-03
  2.80802607E-04 -6.90138405E-02 -8.59055946E-02 -3.06679609E-02 -3.57663183E-03
 -4.78137359E-04  9.04200644E-03 -8.44860314E-02 -1.04418713E-01 -3.59900857E-02
 -2.35713647E-03 -3.24054675E-03 -9.48878103E-03 -7.11105710E-04 -9.70469699E-04
 -5.24856213E-02 -7.15539699E-02  2.68405759E-03  5.47276577E-04 -7.48781460E-02
 -1.04406175E-01  3.93104100E-03  1.62571522E-02 -6.87522162E-02 -6.87230074E-02
  3.48946148E-03  1.38281469E-03  7.16340082E-05  3.02003822E-04  1.00107641E-02
 -8.80079480E-04  3.39135873E-02  5.50986523E-02  1.16703294E-01 -3.47356324E-02
  1.74554958E-04 -1.67541112E-01  1.65855246E-01 -4.28347319E-02  5.70471293E-04
 -1.80268167E-01  1.20606868E-01 -4.08036851E-02 -1.57212946E-04 -4.94756516E-03
 -1.43195943E-04 -1.32312747E-04  7.80404374E-03 -1.11042633E-02  3.06431855E-02
  4.88277995E-02  1.11304999E-01 -2.23273821E-02 -1.10724165E-02 -1.56951757E-01
  1.61593156E-01 -2.91748873E-02 -1.72088263E-02 -3.90629840E-02  6.71585128E-02
  1.44212545E-02 -1.05408322E-02  2.88792565E-03  2.96609971E-04  5.72595842E-04
 -2.23458663E-02 -1.37180845E-02  6.71282275E-03  1.05129977E-02 -4.47972434E-02
 -2.40855599E-02 -1.18653809E-02 -2.82571798E-02 -6.29285829E-02 -3.33702585E-02
 -1.75104312E-02 -5.88777141E-02 -4.77523829E-02 -5.42277468E-02 -6.20336127E-03
 -3.91154672E-03  2.65252400E-04  1.37611211E-03  6.86044732E-03  6.96260605E-04
 -5.10843687E-02 -8.23215210E-02  4.37878801E-03 -9.59162146E-03 -1.55097909E-02
 -8.74276980E-04 -3.31843629E-02 -3.09324416E-02  1.18308893E-02 -1.64666719E-03
  2.94133459E-03 -9.43073143E-04 -2.09768255E-02 -3.16448421E-02 -6.67404872E-03
 -1.68749441E-03 -1.97618847E-03  1.98989281E-03 -2.87148076E-03 -6.07388370E-03
  6.20574524E-03 -3.64628733E-03 -1.04225253E-03 -9.68189617E-04 -3.23821815E-02
 -5.26092015E-02  1.07218288E-01 -1.44230839E-01 -1.01872970E-02  1.57681757E-01
  1.53189661E-01 -2.05293266E-01 -1.49079428E-02  2.17691470E-01  1.24243891E-01
 -1.75145826E-01 -1.26933196E-02  6.79616972E-03 -6.40903990E-05 -1.00318494E-03
  9.32263962E-03  1.02023305E-02 -4.35234078E-02 -7.03747555E-02 -2.86435604E-02
  1.45326085E-01 -4.36624753E-03  2.09524651E-01 -3.92038915E-02  2.01987362E-01
 -6.77309082E-03  2.64513065E-01 -2.81067975E-02  1.57634853E-01 -4.27953331E-03
  8.19586211E-03 -3.81764810E-04  4.20599085E-04  1.07272899E-02  8.25729032E-03
  4.38270829E-03  6.97643143E-03  6.10268960E-03 -6.14043071E-03  1.38019096E-01
 -2.18889040E-02  9.04509604E-03 -8.76596228E-03  2.14694032E-01 -7.79301539E-03
  2.50724004E-03  1.05258024E-04  1.37292063E-01  7.64291677E-04 -5.66856029E-03
 -5.37607981E-03 -1.90402529E-03 -3.08652593E-04  1.99522915E-04  2.94832347E-04
  6.33628839E-04  1.04979490E-03  1.30927227E-01 -8.36356793E-04  1.59075715E-03
  1.02224226E-03  1.91342856E-01 -1.95018382E-03 -4.66744998E-04 -3.87222638E-03
  1.04845847E-01  2.36445839E-03 -4.53637890E-03 -1.08986591E-02  1.14500003E-03
  6.19447045E-04 -6.48112203E-03 -9.94163745E-03 -1.02305267E-03 -1.08128447E-03
 -1.00792262E-03  1.17177175E-02 -6.26293062E-03 -6.86184622E-03 -5.22879799E-04
  3.68694299E-04  9.47058118E-04  7.76501338E-03  8.97846397E-02  1.19534336E-01
  5.01104792E-02 -6.73292917E-03  5.79908038E-03 -5.07900214E-03 -8.19543307E-02
 -1.09157839E-01 -4.48097236E-02  6.27103610E-03 -7.16429873E-03 -2.65808122E-03
 -3.04411217E-03 -4.96107988E-03  1.18288645E-02 -9.34200245E-03  1.32954010E-01
  1.51357188E-02  1.70296256E-02 -1.31716760E-02  1.95105798E-01  1.95246656E-02
  1.32159585E-02 -1.23583574E-02  1.65139691E-01  5.34159060E-04  4.79831890E-04
  1.33953144E-02  3.75960669E-04  9.86343088E-04 -4.51303091E-03 -7.32038066E-03
 -5.40304450E-03  1.19809014E-02  9.23175501E-02  2.20905718E-02 -7.35853828E-03
  1.62455100E-02  1.37762939E-01  2.59613570E-02 -5.96054439E-03  1.32795558E-02
  9.67433994E-02  4.20447826E-04  7.60459571E-03 -1.16591792E-02  5.12880723E-04
  8.04566532E-04  1.31832250E-02  2.09215048E-02 -1.98302000E-02 -3.71268285E-02
 -2.86695116E-02 -6.32151357E-02 -2.76155546E-02 -5.03236117E-02 -4.16131607E-02
 -5.54019487E-02 -4.62044743E-02 -4.55482537E-03 -4.03579588E-02 -1.79628424E-03
  1.02061899E-02  1.49166858E-03 -1.18483488E-02  2.95860590E-02 -1.59992509E-04
 -3.80924843E-04  3.41847188E-02  1.83972532E-01  4.93366718E-02 -9.21571511E-04
  5.07170611E-02  2.67691342E-01  6.93988530E-02  3.48260006E-02  2.17861163E-02
  1.82925705E-01  5.68846659E-02 -1.18031931E-02  5.96166556E-03 -9.16680140E-03
 -1.28285556E-02  1.23453935E-02 -3.38455812E-02 -5.04801225E-02 -2.86274427E-02
 -3.36793856E-03  3.35869909E-03 -5.29342235E-03  1.61226676E-01  2.21714600E-01
  1.14862896E-01 -5.08788107E-03 -1.16933708E-02  4.18075655E-03 -1.17679083E-02
 -2.10867526E-02 -1.14821162E-02  3.14288567E-03  1.12807156E-02  4.76238217E-03
 -1.07519150E-01 -1.48116681E-01 -6.66356977E-02  8.00430300E-03  3.94182655E-03
 -9.07649340E-03 -9.92779851E-03 -1.62385668E-02  4.71289564E-02  3.86459375E-02
 -5.28631714E-02  5.18965101E-02  6.68147713E-02  5.55600033E-02 -7.71252503E-02
  6.42700650E-02  5.70947067E-02  3.73609051E-02 -7.02338295E-02  1.07005307E-03
  8.33881818E-04 -4.20025346E-03 -5.17962712E-03  1.55208139E-03 -7.05988859E-03
 -1.15412761E-02 -2.34073561E-02  5.32178532E-02 -2.77950253E-02  3.47922601E-02
 -3.23381451E-02  6.98594320E-02 -4.08578381E-02  4.99209882E-02 -1.96001177E-02
  6.27633668E-02 -3.21642059E-02  1.80953397E-03 -1.61191781E-03  2.85907166E-03
  6.26646527E-04  4.21966951E-03  4.25194069E-03  6.77253122E-03 -1.00850187E-02
 -7.87132120E-03  7.11268110E-02 -1.99368530E-02 -1.42438800E-02 -1.02849650E-02
  1.01763520E-01 -2.29824578E-02 -1.42845699E-02 -1.92748005E-03  1.06649552E-01
 -4.92441986E-04 -2.92659519E-02 -6.94553631E-03 -5.04142791E-03  9.43578217E-03
  2.47312503E-05  1.11621493E-05  1.51778809E-02  6.25741431E-02 -1.51888318E-01
 -1.04409361E-03  2.21708242E-02  9.18939360E-02 -2.16915029E-01  1.11894009E-02
  1.14893659E-02  6.29914759E-02 -1.78339041E-01 -8.01580555E-03 -1.57829907E-02
  1.38663504E-02 -6.89089183E-03  3.44722863E-03 -1.38140530E-02 -2.15163147E-02
 -1.12899418E-02 -1.60862674E-03  7.81346805E-04  1.51819837E-02  6.69534938E-02
  9.27620061E-02  4.77749147E-02 -2.05433226E-03 -5.41002660E-03 -7.40359266E-03
 -1.34621861E-01 -1.83559639E-01 -8.13014983E-02  7.62432163E-03 -3.02246957E-03
  6.70903850E-03  8.28865426E-02  1.06710145E-01  4.55944999E-02 -2.79905904E-03
  1.00395073E-02 -9.06447141E-04 -4.33050088E-03 -7.06776872E-03  1.90779909E-02
  8.88767391E-03  1.52561624E-01  2.21140818E-02  2.71014977E-02  1.29506777E-02
  2.21896356E-01  3.08465271E-02  2.26235694E-02  7.56922821E-03  2.05601853E-01
  5.29222069E-04 -2.58571667E-03  1.15357017E-02 -1.72927215E-03  5.98047158E-04
 -8.43665058E-04 -1.38723518E-03 -8.77658626E-04  9.85216733E-03  7.36470408E-02
  3.98484060E-03 -1.31527111E-03  1.24999106E-02  1.08030216E-01  7.79351286E-03
  2.22610484E-03  1.17829087E-02  8.51217882E-02 -1.23933031E-04  4.10050300E-03
 -7.56387829E-03 -5.03855067E-05  5.93198308E-04  4.91200914E-03  8.41180818E-03
 -1.00799176E-01  9.59437357E-02 -1.85181086E-03 -2.20224526E-02 -1.48599406E-01
  1.37309333E-01 -2.67729114E-03 -2.72318183E-02  1.38109793E-02 -4.82629729E-02
 -6.45768199E-03 -2.22416232E-03  1.00550843E-03  3.71656755E-04 -2.73870300E-02
 -2.59286098E-02  7.81323621E-03  1.23566087E-02  9.86262994E-02  3.71170228E-03
  5.78731995E-03 -3.84182474E-02  1.49472968E-01  1.14009730E-02  8.25397584E-03
 -8.83420194E-02  1.07489655E-01  1.35325797E-02  1.08627572E-02  4.79024516E-03
  5.87151181E-04 -4.66246438E-04 -1.00004409E-02 -8.50423370E-03 -8.33724566E-02
 -1.53519397E-01 -4.65078921E-02 -1.51200891E-02 -1.01675969E-02 -7.03856466E-04
  2.21769008E-02  4.10145785E-02  6.92663018E-03  4.39846254E-03 -3.38764557E-03
  4.42839912E-04  3.00487278E-02  3.73574854E-02  3.65014844E-02  5.01066184E-03
  9.44315919E-04 -2.93575188E-03  2.22565212E-02  2.84466461E-02  3.87559153E-02
  4.98878830E-03  6.89490942E-04  2.48297071E-03 -2.92117289E-02 -4.76198404E-02
  1.21915234E-01 -1.34917123E-01 -5.94754068E-03  1.44093499E-01  1.76108242E-01
 -1.88094151E-01 -8.79741747E-03  2.14686733E-01  1.15526409E-01 -1.89271518E-01
 -7.49613036E-03  7.24988928E-03  1.01992688E-04 -4.06555239E-04 -1.18208174E-03
  4.25832651E-03  1.94118230E-02  3.16247323E-02  1.01974225E-01 -1.39459719E-01
 -7.51857017E-03 -9.72073642E-02  1.35139562E-01 -1.91426647E-01 -1.06666431E-02
 -1.09858841E-01  1.29594396E-01 -1.59788213E-01 -9.01656743E-03 -7.24207970E-03
 -4.71193216E-04  8.02467623E-04 -6.73795604E-03 -1.18249312E-02  2.52848072E-04
  4.24042112E-04 -5.17649033E-04 -3.64878605E-04  7.04570348E-02 -1.29493727E-03
 -8.59761861E-04 -7.87424477E-04  1.07951719E-01 -3.45291322E-03  7.88790450E-04
 -8.80866036E-03  8.39198049E-02  9.07960127E-04 -1.43122620E-02  5.29178644E-02
 -6.16653300E-04  1.00207542E-03  1.76167709E-04  2.92316722E-04  1.50507324E-03
  2.23092340E-03 -1.87146370E-02 -1.13906644E-03  2.04887430E-03  3.57095717E-03
 -2.36281010E-02 -2.46534790E-03  4.45852734E-04  1.59787990E-02  9.44887647E-03
 -8.39014035E-04 -6.27297172E-03  3.07194922E-03 -4.42004607E-04  3.73362540E-04
 -2.21963098E-04 -2.46088052E-04 -1.41965720E-03  1.35439182E-04 -1.20259892E-05
 -1.70526026E-02  3.58844759E-03  1.50470553E-03 -2.03741706E-03  4.61277415E-04
 -8.42201779E-06 -9.57544766E-04 -2.02770706E-02 -4.42525778E-02 -4.50756910E-02
  3.78536154E-03 -1.03743782E-03  1.71736149E-03  1.74827366E-02  4.41307136E-02
  4.94761040E-02 -4.11307427E-03  1.60863366E-03  1.55177910E-03 -9.75071038E-05
 -1.68548540E-04  2.87437765E-04  8.37509921E-04 -1.99993604E-01  7.92974654E-04
  4.09654640E-04  1.15861220E-03 -2.82694052E-01 -2.54007700E-03 -2.15275494E-04
  4.90313349E-04 -3.14826620E-01  6.29898737E-05  4.99326210E-03 -6.39392028E-03
 -9.46975900E-05 -2.06389984E-05  1.16026140E-05  3.61528364E-05  4.83831719E-03
 -2.59190949E-03  2.21606652E-01 -5.06558684E-04  6.80504309E-03 -3.79953145E-03
  3.16910263E-01  4.36941403E-03  7.71381674E-03 -3.63456054E-03  3.11292176E-01
 -5.50890019E-04  9.91310426E-03 -1.44651770E-02 -1.29351569E-05 -4.03704703E-04
  6.29197207E-03  1.05234878E-02 -2.36539656E-02  1.90264462E-03  1.11803681E-04
 -3.50528025E-02 -4.69732929E-02  2.85710767E-03  2.79723927E-04 -5.18966333E-03
  6.98803700E-02  9.00943794E-02 -1.64647581E-03 -2.80374736E-03  8.07822598E-04
 -1.41772398E-05 -5.89675547E-02  3.05416115E-02  1.35479886E-02  2.13709498E-02
  7.34527667E-02 -3.26511430E-02  1.02583032E-03 -6.04973403E-02  1.01602937E-01
 -5.20544137E-02  1.96175552E-03 -1.85829231E-01  1.05821361E-01 -5.55808711E-02
  7.43528244E-03  1.89802403E-03  2.29488460E-04  8.57106591E-04  3.20091328E-03
 -3.42859319E-03  2.10099917E-03 -4.90119079E-03 -6.67683203E-02  8.21766301E-04
  3.89764313E-03  3.86511629E-05 -2.04683784E-02 -2.07128387E-02  3.59893528E-02
 -1.16578266E-03 -2.95723914E-04  9.59060902E-05  2.58559626E-02  4.71828856E-02
  2.88054273E-02  4.86338814E-03 -6.09178982E-04 -4.77893555E-03  2.99072160E-02
  5.84448736E-02  3.31895407E-02  4.61153370E-03  9.01113584E-04  5.31839396E-03
 -6.73000953E-03 -1.07350208E-02 -1.46869784E-02  1.08442506E-01  1.54112788E-03
  3.04884813E-02 -2.71196706E-02  1.53200891E-01  2.26720042E-03  1.13565922E-01
 -3.08194066E-02  1.62491097E-01  2.46162152E-03 -1.17910868E-03  1.11248393E-05
  5.50670498E-05 -3.27007596E-03 -5.09708322E-03 -1.58933201E-03 -2.78862182E-03
  2.31822031E-01  1.55509692E-01 -2.60767779E-03  1.23921131E-02  3.30501629E-01
  2.21376447E-01 -3.87838080E-03 -1.23943439E-02  3.24650853E-01  2.26190150E-01
 -3.06112344E-03  3.25972149E-04 -2.89359257E-04  7.02950131E-06  1.35752495E-02
 -6.48506220E-03  1.16738279E-03  1.86081712E-03  1.43940012E-03 -1.46865094E-03
  2.41178315E-01 -2.91852698E-03  3.07898096E-03 -2.84425303E-03  4.07862482E-01
 -4.21138456E-02  3.78738046E-04 -3.86044231E-04  4.88480268E-01 -2.39754480E-03
  2.50569032E-02 -1.62053272E-02  8.27247377E-05 -6.20752914E-04 -2.41806845E-03
 -3.82561302E-03 -8.51824826E-04 -2.38853740E-03  1.53705092E-02  9.52806905E-03
 -3.78193193E-03 -2.31796202E-03  2.07565954E-02  5.87945902E-02 -1.04349918E-03
 -1.39249116E-02  2.31987497E-01 -3.42921972E-03 -4.37705189E-02  9.57426821E-03
 -1.50338484E-03  4.94502877E-04  6.84194386E-04  7.80821833E-03 -7.50157363E-03
  7.32210812E-04  2.06013967E-04 -1.76042058E-02  6.37918850E-03  1.91341742E-02
  3.79971347E-02  2.05646564E-04 -1.06463800E-04 -3.41828197E-03 -5.92213708E-02
 -1.60728207E-01 -4.57096981E-01 -8.51339307E-03  9.43207584E-04 -2.64444928E-03
  5.06999360E-02  1.41679108E-01  3.45022095E-01  6.48977961E-03 -5.48805866E-04
 -1.49896297E-03 -4.02259545E-04 -6.42696901E-04 -5.02215012E-04  2.41839903E-03
 -1.13899765E-01  1.71895874E-03 -7.68243555E-04  3.35708669E-03 -1.52819256E-01
  9.91021472E-03  3.55440810E-03  7.26414284E-03 -2.56384194E-01 -3.06270432E-04
  1.06862141E-02  1.04860475E-02  1.62441187E-04 -5.81921196E-06 -4.70470402E-04
 -7.53482596E-04 -1.63575531E-03 -3.07396549E-04 -1.82768604E-01  1.89480496E-03
 -2.32536903E-03 -3.54024792E-04 -2.46950199E-01  9.69519968E-03 -1.77074889E-03
 -2.63863105E-03 -4.01880792E-01 -5.05872472E-04  5.76663218E-03 -5.73349239E-03
 -9.14967822E-05 -1.97172876E-04 -7.21221319E-03 -1.14586274E-02 -8.71570848E-04
 -2.94309466E-02  4.80643737E-03  1.95245599E-02 -1.16413030E-02 -4.07350942E-02
  8.61465659E-03  5.89905252E-02  2.82974412E-01  1.28211621E-01  9.09366339E-03
  1.09877268E-02  6.93510594E-04 -4.08572040E-04 -1.43951911E-02 -1.62626901E-02
  3.04831861E-02  4.82046374E-02  8.04231886E-03 -2.51426732E-03 -1.41494999E-04
 -1.04434212E-01  2.99070389E-02 -4.32529135E-03 -4.66334791E-04 -1.00296812E+00
  2.00971122E-02 -1.18524049E-01  6.79557024E-04 -2.24252110E-03 -1.04301679E-03
 -1.29670244E-04 -1.55278330E-03  8.17447278E-03  8.41030289E-02  1.02974958E-01
  1.20381977E+00 -3.30933612E-02 -5.79471790E-03 -4.94691156E-04  1.96563675E-02
  9.12496912E-02  4.03320150E-01  4.81408827E-03  1.84599661E-03  8.94046526E-05
 -2.35123504E-03 -6.05651374E-03  3.20665458E-01  6.12912524E-04 -2.70184228E-04
  3.18151758E-03 -1.80629578E-03 -7.76821192E-03  3.23034335E-01  6.27983032E-04
 -1.55045593E-03 -3.44507764E-03  3.63704921E-02  5.97923425E-02  1.09258202E-01
 -1.64802558E-03 -1.99248456E-03 -1.89600266E-01  1.46608981E-01 -2.01275879E-02
 -2.75854480E-03 -4.79069610E-01  2.81715464E-01  7.66939131E-02 -4.06512621E-03
 -2.12396189E-03  2.24049943E-04  2.49851717E-04  5.44584061E-03  5.65675198E-03
  8.22678244E-03  1.37419053E-02  3.26936071E-02  1.28550194E-02 -3.32940749E-03
 -4.63303104E-02  4.85079231E-02  2.06143353E-02 -4.44307835E-03 -7.79565626E-02
  1.69779972E-02  1.75746961E-02 -7.14902168E-03  1.40788907E-03  1.82495580E-04
 -2.85614812E-04  1.32666437E-03  4.30337998E-03  1.30180011E-03  2.58281671E-03
 -4.86354727E-03 -1.19243456E-02 -9.70945641E-03  4.61388985E-03 -3.52069464E-02
 -2.32604569E-02 -1.67086867E-02 -1.54465014E-01  3.17925229E-01  1.16332352E-01
 -3.00393147E-02 -6.71913855E-03 -3.93691160E-04  7.83105248E-04 -1.47042077E-02
 -1.01790148E-02 -4.65332534E-02 -7.29402291E-02  8.08521415E-02 -1.46171842E-02
  6.16809127E-03  1.46575907E-01  8.69538332E-02 -1.37699242E-02  7.14098992E-03
  1.45807228E+00  5.13094068E-01 -2.10627929E-01  3.72771593E-02 -9.19885127E-03
  1.65775694E-03 -5.25023198E-04  6.33633185E-03  5.46715130E-03  3.32920262E-02
  7.38477414E-02  6.17425843E-01 -1.49674859E-02 -4.14756538E-03  5.29622589E-04
 -4.27208757E-03  4.45690521E-02 -5.52992645E-01 -1.81014452E-03 -1.07035736E-02
  1.37485475E-03 -1.39863986E-02 -3.67187207E-02 -1.00450906E+00 -2.01576745E-03
  6.48134635E-03 -1.42622552E-02 -1.66832402E-02 -4.36484958E-02 -9.93915145E-01
 -3.51284892E-03  8.01539602E-03  1.27820483E-02  7.37682364E-03  1.22889599E-02
  7.18232363E-02  6.54838709E-03  4.33911436E-03 -4.25406537E-02  9.74179435E-02
 -3.80565952E-03  5.92448679E-03 -4.52739658E-02  1.96300048E-01  1.06426416E-01
  1.04949317E-02 -2.84863309E-03 -3.24258446E-04 -5.51039992E-04  1.08131651E-03
  4.64390789E-03 -5.96369384E-03 -9.46506522E-03  4.12231402E-02  3.62692624E-03
  6.91453038E-03  2.31184125E-02  5.84028638E-02  1.08906061E-02  9.49688978E-03
  1.45724902E-01  6.61917215E-02 -4.92595254E-02  1.58681998E-02 -1.19131648E-03
 -2.43372738E-04  3.58846607E-04 -2.69866083E-04 -5.86713138E-04  2.01214042E-03
  2.60457478E-03 -1.05059769E-02 -2.41145700E-02 -5.58553032E-03  1.01878978E-02
 -1.08343229E-02 -4.25980360E-02 -9.75075486E-03 -2.07741066E-01 -8.46438375E-02
 -4.21706744E-02 -1.57197518E-02 -9.57389036E-03 -3.22926683E-04 -1.00365376E-04
  5.25674526E-03 -3.18165399E-02  3.62048663E-03  5.80525426E-03 -2.36107544E-02
 -1.71625089E-01  4.30353172E-03 -1.84168575E-02 -4.12687432E-02 -1.83859919E-01
  6.97630757E-03 -1.41661272E-02 -1.20287931E-01 -1.06962085E+00  1.23552325E-02
 -2.21143399E-02  1.14361416E-03 -6.27576274E-03 -1.99981268E-02  2.59641947E-02
  7.81608632E-03  8.44979087E-02 -2.11722233E-01  6.60380801E-03 -2.64162712E-03
 -3.00925276E-04  5.16955221E-02  7.82641801E-02  1.96355864E+00  1.40667861E-02
  3.55632873E-02 -2.73249802E-03 -1.53122050E-02 -3.07765322E-02 -6.98950820E-01
 -7.49632982E-03 -3.54595538E-03 -1.32825467E-02 -1.90839598E-02 -3.85817530E-02
 -9.46075076E-01 -1.05683533E-02  1.16692648E-03  1.73664459E-02  2.95302045E-03
  5.02720016E-03 -2.79915815E-02 -1.73621469E-02 -3.01956836E-04 -1.93668970E-02
 -3.55897038E-02 -2.23529936E-02 -1.11915999E-03  4.29330175E-03 -4.56526533E-02
 -3.66429204E-02  2.42809529E-03 -3.88898369E-03  1.96676823E-04 -4.99148192E-04
  2.84340575E-03  1.55072736E-03 -2.85813549E-03 -4.48436315E-03  1.22323110E-02
 -3.24032768E-02  6.13337315E-03  1.08160234E-02  1.51519146E-02 -4.24405887E-02
  8.99441508E-03  5.47502156E-02  4.20982130E-02 -6.94252362E-02  1.23099039E-02
 -4.67168567E-04 -3.44740801E-04 -7.15901698E-05 -2.14460844E-03  2.57128326E-03
  3.58546292E-05  1.71822561E-04  2.63627188E-04 -1.43816205E-03  6.35849258E-02
 -2.91150182E-03 -1.34085650E-03 -1.73090786E-03  9.16245820E-02  2.48169306E-02
  1.71527866E-02  1.16515828E-02  3.30932038E-01  1.06093274E-03 -8.62216362E-03
 -5.76458218E-03 -1.16215307E-03 -1.13030280E-03 -1.11681206E-03 -1.62795119E-03
  4.12134382E-03 -2.87080769E-03 -1.73348824E-01  2.06037615E-03  4.04337995E-03
  1.25987107E-03 -1.62752429E-01  3.94518956E-02  2.76650721E-02 -3.81207822E-02
 -1.09503884E+00  4.51502988E-03  1.22272474E-02 -2.29945495E-02  3.49285432E-03
  1.44767426E-03 -4.53538643E-05 -2.62642966E-03  2.05974870E-02 -5.27810912E-04
 -1.03086390E-03 -8.06612885E-03 -2.00945042E-03  8.08655566E-03 -1.29095430E-01
 -7.94670768E-04 -3.21600842E-03 -7.09223061E-03  6.54537250E-03 -6.85723829E-02
  1.75107478E+00  1.21966902E-02 -1.65124965E-02  3.13474039E-02 -4.26003821E-03
  7.46475713E-02 -1.71977278E+00 -1.30584274E-02  2.35177774E-02  2.66432436E-02
 -2.79701493E-04 -4.59401122E-04  2.63639094E-03 -1.93049398E-03 -5.51994820E-02
  1.33734487E-03  3.11170887E-03 -3.16340821E-03 -7.86646625E-02  5.33733422E-03
  7.22128243E-03 -5.18029992E-04 -1.24913826E-01  2.13709686E-04  5.44606395E-03
  2.59144246E-03 -1.90179946E-04  6.57381015E-04 -2.83648985E-04 -4.91093151E-04
  1.99287795E-03  1.88744572E-03 -4.52355161E-02  2.28830468E-03  2.38691491E-03
  2.77114095E-03 -5.80719088E-02 -5.99192528E-03  1.55902436E-03  5.53234924E-03
 -1.34221242E-01  2.58206799E-04  7.26451923E-04 -3.06261012E-03 -6.52703241E-05
 -1.77360690E-04 -6.51914036E-02 -1.08705093E-01  1.18816080E-01 -2.87157695E-02
  3.41760197E-03  3.20988595E-01  2.07011934E-01 -6.23086643E-02  7.58017756E-03
  3.06348182E+00  1.50859597E+00 -2.27301032E-01  1.76103747E-02  2.45041908E-02
  1.23503392E-03 -4.68527468E-04 -1.08046741E-02 -6.43421820E-03  2.20996787E-02
  3.25004617E-02  1.15170961E-01 -9.86740656E-03  1.97968216E-03  2.10939634E-02
  6.36824713E-02 -6.84581629E-03  1.45745809E-03 -1.97399312E+00  2.29750549E+00
  1.29384213E-01 -2.51412590E-02 -2.36453659E-02 -2.01430412E-03 -7.06487493E-04
  4.45978133E-02  7.61315289E-03 -5.86244510E-03 -9.25756501E-02 -1.02321051E-02
 -2.28960504E-03 -1.68412151E-02 -1.79123079E-04 -2.98599482E-02 -2.97264447E-01
  8.51119119E-02  2.11085608E-02 -2.34466898E-03 -3.73680941E-04 -2.10858009E-02
 -7.14156648E-02 -2.82189193E-01  6.90696003E-03  9.23190865E-03 -1.38310716E-02
 -1.96716228E-02 -9.63913071E-02 -2.78738063E-01  9.98114865E-03  1.17717681E-02
  1.07025472E-02  9.31710600E-03  1.50977448E-02 -4.41202237E-02 -5.54646526E-02
 -1.60686419E-03 -3.80112538E-02 -4.43097189E-02 -8.96543631E-02 -2.27184362E-03
 -2.92783515E-01 -3.19521074E-01 -1.63402427E-01 -4.18582432E-03  6.85944681E-04
  1.58613181E-04  2.63778554E-04 -2.00030492E-04  1.25741978E-02  6.69299628E-03
  1.14202581E-02 -4.70916770E-02  2.90747649E-02 -1.37743249E-03 -4.11722577E-02
 -4.95659118E-02  5.22731847E-02 -1.22487500E-03 -4.25924106E-02 -2.49962422E-01
  1.69522673E-02 -6.96186765E-03  3.84545437E-03  6.43009701E-05 -4.24510557E-04
  9.89375500E-04 -3.93407632E-03 -1.19976147E-02 -1.66071764E-02 -8.44310862E-02
 -2.20283291E-03  5.64579050E-03 -1.13816863E-01 -2.35236539E-01  3.26355501E-02
  1.44673213E-02  1.69298942E+00 -1.21863803E+00  2.37946106E-01  4.40577789E-02
  3.64745319E-02  1.59193859E-03  1.02692185E-04  8.13351931E-03  9.01999446E-03
 -1.54254869E-03  5.68975525E-04  5.01899691E-02 -1.96259527E-02  2.17750376E-03
 -5.28350486E-02  1.90922820E-01  1.08011238E-02  4.14476394E-03  5.29523658E-01
 -5.68072332E-01  2.72396769E-01 -5.24111096E-02  1.33968367E-02 -3.65954991E-03
  2.49992285E-04 -7.66700258E-03 -3.96604810E-04 -6.64518542E-02 -5.19214007E-01
  3.26845443E-03 -4.23482819E-03  3.68970084E-03  1.06182969E-05 -3.79595848E-02
 -4.11021134E-01  3.28967476E-01  6.05655179E-03  2.13544117E-02 -1.78184463E-03
  2.08204835E-02  3.47184026E-01 -3.27969168E-01 -1.40023578E-02  1.43389777E-02
 -1.17267058E-02  2.62780873E-02  3.36018561E-01 -3.10838702E-01 -8.26542392E-03
  1.67061916E-02  8.92834449E-03  8.01576405E-03  1.20833618E-02 -2.80724112E-02
 -7.96672669E-02 -1.50670303E-03 -1.09885113E-02 -5.02480025E-02 -9.68746900E-02
 -5.56658661E-04 -4.89304753E-01 -1.95421016E-01 -4.69278022E-01 -1.16028268E-02
  1.26252299E-02  1.49553256E-04  4.38912258E-04 -1.52122663E-02 -5.13073454E-03
  4.15398531E-02  6.68290041E-02 -1.77461964E-02  7.36012374E-02 -8.49774336E-04
 -1.59930003E-01 -2.65450659E-02  8.08816133E-02 -9.51812256E-04 -1.36820496E+00
 -1.96948842E-01  6.37391903E-01  1.01614762E-03  1.11551744E-02  4.12958678E-04
 -7.36829708E-04  2.58227728E-03  1.33953539E-02  2.52461210E-02  4.02174097E-02
  8.19961646E-02  1.26748133E-01 -3.61141089E-03 -4.44588710E-02  1.96324580E-01
  2.38204004E-01 -8.43565711E-03 -1.13918911E+00  3.59668388E-01  1.46155491E+00
 -1.61013094E-02 -2.64795741E-02 -4.03002012E-04  2.52394637E-03 -1.37737563E-02
  2.82733617E-02 -2.81650629E-03 -6.01595383E-03 -3.15831035E-02 -1.14670663E-03
 -5.06302162E-04  3.63582426E-02 -1.28051631E-01  7.02487024E-02  4.59299000E-03
  1.10606742E-03  1.68866840E-01 -4.11755830E-02  5.95561710E-02 -7.66833130E-04
  3.38051094E-03  1.39747507E-03  8.15005785E-03 -2.97239741E-02 -1.41469826E-02
  3.34610005E-02  4.86458550E-01 -6.22651382E-03  1.16050722E-02  4.20021282E-04
 -8.95587919E-02 -7.26493140E-01  6.86434648E-01 -1.25686488E-02  2.97973571E-02
  6.35682056E-05  3.34621710E-02  1.56724442E-01 -1.99863500E-01  1.11214529E-02
  1.60908617E-02 -2.30294491E-03  4.72288232E-02  3.16478742E-01 -2.81785502E-01
  7.71015192E-03  1.83430821E-02  9.58605903E-03 -4.30920055E-02 -7.11305838E-02
  1.03413972E-01  9.53825828E-02  9.40330360E-04  2.12306296E-01  1.37810958E-01
  1.07437500E-01  2.55736937E-03  1.16346856E+00  4.51251961E-01  6.34642609E-01
 -9.95546619E-04 -2.35373687E-04 -2.24416359E-05 -2.37841640E-04 -1.37181390E-03
 -4.41571815E-03  7.78737739E-03  1.22002736E-02 -6.02437667E-02 -6.04166663E-02
  1.48327056E-03 -2.44045747E-02 -5.99850765E-02 -8.22215731E-02 -2.01868601E-04
 -3.63002266E-01 -3.22155703E-01 -1.67925424E-01  1.31015020E-02 -4.51144257E-03
 -2.94602921E-04  3.95751926E-04  1.11922893E-02  1.45999261E-03 -3.24626828E-03
 -5.72903346E-03  1.87059946E-02  2.46788046E-02 -9.82412437E-02  1.15553218E-02
  5.96430595E-02  8.64078445E-02 -2.41426756E-01  1.48526760E-01 -8.69327131E-01
  1.02558365E+00 -3.59547784E-01 -1.86992269E-03  1.77659538E-02  2.09975427E-02
 -4.16520060E-03 -6.55733832E-03  2.13610929E-03  3.78332364E-03  2.70058422E-02
 -2.24636545E-03  2.68748841E-02 -4.67174961E-02  2.88567537E-02 -5.05617077E-03
  1.05197967E-01  8.14093433E-01 -1.13735527E-01 -7.52339045E-01  1.49717740E+00
 -2.06687392E-03  4.32673288E-02  1.82907334E-03  8.40938080E-03 -1.75826639E-02
  9.73824869E-03  2.46319910E-01 -2.44160379E-01  1.21515835E-02  9.96870340E-03
 -1.70048346E-03  1.54094944E-02  4.03114909E-01 -9.84227896E-02 -1.77764053E-02
 -1.26618502E-02  3.46087398E-02 -7.96671313E-02 -1.39129155E+00  1.43805519E-01
  4.09819055E-02 -1.51496255E-02  5.24886878E-02  5.18907393E-02  6.71914237E-01
 -1.33920303E-01 -4.05291347E-03 -5.73276316E-03  4.61491576E-02  3.18101702E-04
  1.63057577E-03  9.37866631E-03 -1.28161753E-02  2.27490493E-02 -2.97492191E-02
 -1.00599457E-02 -1.82297994E-02  3.62821374E-02  2.63202503E-01  3.26036971E-01
  1.48306055E-02  6.21132116E-02 -5.77739596E-04  1.10146931E-03 -8.91012955E-03
  1.17375229E-03 -3.08607704E-03  1.66362302E-02  2.65648509E-02 -7.11498120E-03
  5.02615745E-03  1.63630340E-02 -5.31247007E-02 -1.70367534E-02  5.03549897E-03
 -2.15750214E-03 -8.99034064E-01 -1.14686841E-01  2.21970800E-01  1.51073256E-01
  5.20230636E-03  7.94057610E-04  1.01235034E-02  4.63417542E-03  5.47685818E-03
  2.62624547E-03  4.18738141E-03  4.68095164E-02  5.88863351E-02  5.31682587E-02
 -3.91520290E-02  1.29167791E-01  1.92500910E-01  1.36235240E-01  2.26520820E-01
 -1.54691010E+00  2.14598569E+00  1.93983610E-01 -8.39374016E-03 -1.00191435E-02
 -1.44924928E-02 -1.68045658E-02 -1.72843593E-02  4.56792134E-03  7.59640137E-03
  4.52917095E-02  1.35480427E-03 -1.19797290E-02 -8.81353716E-02  6.29372695E-02
 -1.51641818E-02 -5.73941957E-02  1.56809588E+00 -1.92510888E-01 -1.67293522E+00
 -8.10770448E-01  1.50749333E-03 -2.51727549E-02  3.05664449E-03  1.39740023E-02
 -4.41819656E-02  3.39739124E-02  6.00029152E-01 -5.01228375E-01  1.89164295E-02
  2.29602828E-02 -1.55266235E-03  1.07256011E-02  5.96127366E-01 -5.10627277E-02
 -3.43961189E-02 -2.65332305E-02 -1.90451460E-02  1.68372289E-02  7.89544988E-03
 -1.03550947E-01  2.02994155E-02 -2.19654731E-02 -1.77106098E-02 -5.02326316E-02
 -1.21725389E+00 -6.01752039E-02  5.31974744E-02 -3.41494883E-02 -3.55334463E-02
 -4.19929034E-03 -5.25214324E-03  4.25828007E-02 -9.78340068E-03 -1.63536857E-02
 -2.25039788E-02  2.92212925E-02 -1.90282681E-02 -3.01876976E-02  5.93748214E-01
  6.66483180E-01  1.06760000E-01 -2.60735495E-02 -2.26320061E-03  2.96932244E-04
  4.61565374E-03  6.25052875E-03 -6.79471520E-03  2.76933610E-02  4.34048705E-02
 -6.18398829E-03 -2.27802195E-03 -3.53102405E-03 -6.41504689E-02 -1.04567585E-02
 -2.90249967E-03  1.12603973E-02 -1.77099918E+00 -2.78181022E-01  3.95712060E-01
 -6.20388201E-02  9.91136394E-03 -2.59528831E-04 -6.31963325E-03  9.28575382E-03
  1.04709216E-02 -5.37082818E-04  1.46057026E-03  2.93297901E-02 -3.09989732E-02
 -2.70819956E-03 -9.22687537E-02  7.66608794E-02 -6.23854401E-02 -6.34639792E-03
  3.80017707E-02 -1.33349770E+00 -1.06242219E+00 -1.34534050E-02  8.18520596E-03
  6.25914864E-04  3.54675754E-03 -4.09633999E-02 -3.02513317E-02  1.39259035E-02
  2.68987957E-02  6.63678382E-02  2.59842572E-02 -8.06070213E-04 -2.05135468E-01
  1.60172109E-01  5.30044871E-02  5.43361747E-03  1.17505764E+00 -6.96829299E-01
  1.12516857E+00  6.14280623E-02 -6.51361096E-03  2.75692658E-03 -8.73239490E-04
  2.77911278E-03  4.35243903E-02  1.42038735E-01  1.66242359E+00 -1.44237102E+00
  1.92265405E-02  1.39946735E-02  8.90278139E-04 -1.51054561E-02 -6.87558580E-01
 -2.74042040E-02  4.25768053E-02  2.92820367E-02  1.41579877E-03  1.10819595E-02
  1.98413034E-01  9.21863415E-03 -4.64075764E-03  2.00941026E-02  9.34524744E-03
  1.44766557E-02  3.59537725E-01  4.50821283E-02 -1.28835332E-02  2.02799146E-02
 -3.83946798E-03  2.31697674E-02  3.71042459E-02  1.17047947E-01 -5.78939356E-02
  3.48224902E-03 -6.46689594E-02  2.07806442E-01 -9.75717284E-02  8.52999350E-03
 -1.17209186E+00  5.48237437E-01 -3.54533044E-01 -2.06450415E-03 -1.78210771E-03
 -2.10337862E-04 -1.40308492E-04  1.82292882E-02  1.62284642E-03 -3.25823887E-03
 -5.08832491E-03  1.28731067E-02 -3.82265128E-03 -1.79547555E-03  1.13159685E-02
  1.34273097E-02 -2.21169849E-03 -5.50050612E-03  7.31442941E-02  1.59673658E-01
  6.80181341E-02  5.65007346E-03  3.31900999E-03  4.34907248E-04  4.42563161E-04
  2.39711023E-03  4.31341381E-03 -1.97914818E-03 -3.48511366E-03 -2.20511584E-04
  2.09722463E-03 -1.89033534E-01  1.33455306E-02 -1.54472205E-02  5.07584991E-03
 -7.88216317E-01  9.10964689E-02  1.19839467E-01  9.46678341E-02  1.75928012E+00
  8.04473141E-04  1.84726734E-02 -5.31043313E-03 -2.50260797E-03 -1.18145447E-03
  2.03244476E-03  3.52274328E-03  3.89467133E-03  1.36813057E-03  2.34477077E-02
 -8.45903793E-03  1.18753907E-02  1.92208507E-03 -4.69637052E-03 -1.45076006E-01
  2.98750046E-02 -9.09551072E-02 -9.43218351E-01 -2.34136682E-03 -1.35457292E-02
  1.18834345E-02 -4.69647516E-04 -3.60372673E-03  2.98224502E-03  1.72950193E-02
  6.47843774E-03 -2.39369059E-03 -2.10799669E-03  3.02954227E-02  4.19823172E-04
  2.77060678E-02  3.31689018E-02  1.31402020E-03 -1.32371227E-03 -8.92853592E-03
  2.29668524E-03  4.18530374E-01 -1.82457749E-01 -5.25240425E-02  2.69087134E-03
 -1.86878965E-02 -4.79587368E-05 -3.53289971E-01  1.26153675E-01  4.85496150E-02
 -6.10329871E-03 -1.70650647E-02 -2.25791329E-04 -3.62650143E-04  2.31128601E-03
  5.34739527E-04 -6.64851329E-02  2.81213084E-04  6.70435076E-03  4.27315522E-04
 -1.36491267E-01  4.15572405E-02 -8.87105292E-03  1.32612005E-02 -1.53638984E-01
 -8.23652670E-04 -6.89066913E-03 -9.63840814E-03  6.00479372E-04  7.56985425E-04
  5.00199979E-04  6.98681818E-04 -3.21701650E-03 -6.97264452E-04 -5.03630709E-02
  1.31197252E-03 -2.20272822E-03 -4.70991587E-04 -8.44704901E-02 -5.02083993E-02
 -3.78650414E-02  3.49417481E-03 -2.11716535E-01  6.53180363E-04 -1.12084812E-02
  9.91448450E-03  2.41202133E-05  1.39956788E-04  6.21230424E-02  1.11244289E-01
  1.10548217E-02  8.49413688E-02 -7.43174444E-03 -5.56248010E-01  2.68525867E-01
  3.15867527E-01 -3.08391294E-02 -1.99757754E-01 -2.12372188E+00 -1.59909460E+00
  6.66649388E-02 -6.41904505E-02  1.67930722E-03  1.94293661E-03  2.14059792E-02
  1.73164674E-02 -4.81212322E-02 -8.60866287E-02 -1.00826952E-01 -1.72598745E-02
  1.48029224E-03  3.42529860E-01 -2.45965595E-01 -6.30617235E-02  3.66370585E-03
  2.13759765E+00 -5.69435157E-02  8.44090716E-01 -4.46861560E-02  5.86574355E-03
 -4.10965651E-04 -1.40472571E-03 -2.70960830E-02  2.45618962E-02 -3.68119731E-02
 -1.92025518E-01 -2.56746918E-01  3.19551747E-02  8.54431108E-02  1.04593587E-03
 -2.40126858E-02 -7.79247191E-01  3.17717484E-03  3.82038232E-02  4.19210060E-03
 -1.29465988E-04 -3.84246118E-02 -4.76525272E-01  1.44689776E-01 -1.86378437E-02
  4.80133127E-03 -9.05474849E-04 -4.24143332E-02 -4.80971882E-01  1.57516561E-01
 -2.16211598E-02  5.85860969E-03 -1.75646838E-03 -7.10529686E-03 -1.38902988E-02
  1.91603312E-02  4.19826501E-02 -1.96018935E-03  1.00511957E-01  3.02065604E-03
  6.64981799E-02 -3.90590371E-03 -9.75271671E-01  1.33009136E-01 -1.97816268E-01
 -4.90651983E-03  2.55128330E-02 -2.26872354E-04 -4.17517403E-04  2.26732180E-04
 -3.41441493E-02 -6.69503293E-03 -1.14590241E-02  9.54929219E-02  1.77873210E-02
 -4.25947557E-03  4.37475862E-02  1.42398943E-01  2.87120578E-02 -9.15560079E-03
  7.03068746E-02  3.74060564E-01  1.93524939E-01 -3.86528499E-03  2.38211379E-03
 -8.94361698E-05  5.47689066E-04  5.34567736E-03  7.01856294E-03 -1.90502663E-02
 -4.35340051E-02 -2.26742357E-01 -1.88726858E-01 -2.23070478E-04  4.55436098E-01
 -3.63026426E-01 -5.14991738E-01 -6.28774758E-03 -8.95170654E-01 -6.66704391E-01
  1.15658086E+00  1.72211828E-02 -2.33058779E-02 -1.29563044E-03  1.25554550E-04
  1.12795936E-01 -3.92048790E-02 -4.41987381E-02 -8.02614712E-02 -1.69030100E-01
  4.35483967E-02 -6.53933286E-03  3.45134693E-01 -4.77126376E-01  6.50440642E-02
 -2.31325887E-02  1.16630066E+00  3.01579646E-01 -3.05794174E-01  1.17702049E-02
  2.87450040E-02  1.35343944E-03  2.55185660E-03 -2.65182076E-02  1.96772664E-02
 -7.97593277E-03  3.56753098E-01 -1.84157093E-01 -1.58753950E-02 -2.53736342E-02
 -1.91390282E-04 -3.41836394E-02 -4.15560086E-01  5.44268068E-02 -4.02540911E-02
 -2.58100029E-03 -4.55943086E-04 -4.39950810E-03 -3.17828160E-01  7.74864929E-03
  7.58658098E-03  9.03489261E-03  9.50799619E-03 -7.99228929E-03 -3.54048527E-01
  4.99877123E-02  9.70091362E-03  6.83222164E-03 -1.03003441E-02  1.60169285E-02
  2.85238383E-02  3.04552381E-02 -1.32668664E-01 -1.48060758E-03 -1.40615838E-01
  5.96086505E-02 -2.02271587E-01 -3.54915761E-03  4.32529906E-01  2.27889605E-01
 -1.22919948E-01  9.91750585E-04 -2.87648242E-02  1.29719586E-04 -9.04925092E-05
 -2.99398175E-02  2.05636736E-02  6.19474534E-03  9.94456093E-03  6.21172909E-02
  2.69212800E-02 -4.09765201E-04 -2.64767019E-02  9.98945220E-02  2.72188997E-02
 -1.34457249E-03 -4.27960909E-01  1.03173417E-01  6.17223341E-02  2.20035185E-03
 -3.19642068E-03  4.49897554E-04  4.34883838E-04 -2.71699324E-02  9.25714473E-03
 -1.66174577E-02 -3.07779481E-02  4.39019572E-02  1.00191629E-02  8.18794299E-04
  1.92515900E-01  2.68032073E-01  6.44337577E-02 -5.18649545E-03  2.23123768E-01
 -8.51392225E-01 -7.60598238E-02 -1.69805883E-03  3.08930525E-03 -6.47975232E-03
  9.62933353E-05 -1.89391482E-02 -1.18707171E-02  5.83522742E-02  1.04464448E-01
 -1.31766204E-01 -6.52528889E-02 -2.69776214E-02 -4.43727476E-01 -5.46097490E-01
 -2.08008530E-01 -8.79892578E-02  5.17579430E-02  3.51454954E-01  4.76200281E-01
  1.76733625E-01 -1.15498492E-02  8.03010190E-03 -5.11871100E-03 -1.20407970E-03
  1.46726440E-02 -2.75575419E-02 -1.91355210E-02 -9.36029555E-02 -2.86795719E-03
  2.04321162E-02  6.23186513E-04  1.00747245E-01  8.71003694E-01 -8.44182433E-01
  1.68361178E-02  5.20858982E-02 -5.82475969E-03  8.08762236E-02  8.34653052E-01
 -4.30676559E-01  6.64782004E-03 -2.04777658E-02  3.27362566E-02  6.31936936E-02
  7.64460808E-01 -6.50164194E-02 -5.20629506E-03 -1.85482095E-02 -2.05462796E-02
 -8.64139596E-03 -1.51430349E-02  4.05940915E-02 -5.67387629E-02  3.83739025E-03
  6.64376106E-02  6.31607147E-02 -1.43346872E-01  1.20485251E-02 -1.08921089E-01
  1.19582386E-01  1.07459432E-01 -1.59506500E-02  4.53965891E-03 -1.59152623E-04
  4.99434184E-04 -9.80829141E-03 -6.96149948E-04  5.36235658E-03  9.15094701E-03
  4.80875885E-02  4.27798033E-02 -1.84654000E-03 -3.28211385E-02  9.54324026E-02
  7.91500556E-02 -4.17379690E-03 -2.29699341E-01  3.07017694E-02  8.10140097E-02
  2.13086764E-03 -5.92919762E-04  4.93648178E-04  2.28600082E-04  7.43815538E-06
 -2.35669251E-04 -2.50947364E-02 -4.72105904E-02 -6.42230960E-02  9.63746748E-02
  4.26959173E-03  2.85322510E-01 -1.56747216E-01  3.60161701E-01 -1.15301918E-02
  4.72756731E-01  1.62194613E-01 -5.93348691E-01 -8.35309904E-02  1.82289833E-02
 -2.02998072E-02 -1.16073618E-03  3.40017365E-02  9.90884531E-02  7.48700742E-03
  1.36036154E-02 -4.44982699E-02  2.08965003E-01 -9.12028734E-02 -4.65131346E-02
 -1.59356676E-01  7.66663966E-01 -3.16646982E-01 -3.31102925E-01  3.12442754E-01
 -1.49712549E+00  6.99972129E-01  3.49109309E-02  2.47285089E-02 -4.49767469E-03
  2.10418413E-02 -6.86967503E-02  1.08102702E-02  2.77927546E-02 -1.24832777E-01
 -2.05282540E-02  1.89787701E-02 -4.30165535E-03 -5.70996431E-02 -1.16298268E-01
  1.50719574E+00 -2.10501458E-02 -4.03181678E-02 -1.10337319E-03  6.40668299E-02
  3.74526689E-01 -1.31484102E+00  1.75426907E-02 -7.57571801E-03  3.86128228E-02
  2.59309787E-02  2.41675778E-01 -4.66402362E-01 -8.30611818E-03  2.53869771E-03
 -2.05875498E-02  1.36682571E-02  2.39813588E-02  4.24114707E-03  1.24164332E-02
  2.15348594E-03 -1.09008595E-01  1.85945069E-02  4.87556690E-02  7.26248856E-03
 -2.49794396E-01 -1.37485780E-01 -1.31175014E-01 -1.56379194E-03 -1.49886818E-04
  1.74075182E-03  7.04207728E-04  1.97195412E-03 -1.19233067E-02  8.29676068E-03
  1.39627363E-02 -2.23156211E-02  7.15151017E-02 -2.56327072E-03 -5.05651929E-02
 -3.66894992E-02  9.88698396E-02 -8.83676707E-03  1.03288135E-01 -4.20825415E-02
  1.91829463E-01  1.95732344E-02 -1.25644010E-02  1.21949297E-03  1.07287371E-03
 -1.42734310E-02 -1.95865918E-02  8.70166101E-03  1.62136342E-02  3.57155968E-02
 -4.11237651E-02  7.11987726E-03 -8.97176741E-02  7.15436703E-02 -1.48288082E-01
 -5.43267316E-02 -3.98399141E-01 -1.73681295E-01  1.98971321E-01 -1.76946236E-01
 -5.68045961E-03 -6.18918220E-02 -3.47332388E-03 -1.18519784E-02 -3.40516959E-02
 -6.48721839E-03 -1.17422396E-02  4.14901929E-02 -6.19292961E-02 -2.56859876E-01
  3.69193904E-02  1.38179110E-01 -2.39374820E-01 -9.06141295E-01  3.21642741E-01
 -2.85316913E-01  4.73441474E-01  1.91879139E+00 -4.42704001E-03  7.28241123E-02
 -3.32238550E-02  4.44680144E-03  2.58226971E-02 -3.50671800E-03 -3.48586365E-02
  5.38297528E-02  1.37209571E-02 -5.27846876E-03 -4.50503695E-03  2.29211099E-03
 -9.22709929E-02 -2.57482037E-01  4.88000211E-03  2.24455320E-03 -1.47814693E-02
  5.37058376E-02  1.24724914E-01 -1.31255063E+00  4.52498044E-02 -1.78227799E-02
  2.19831003E-02 -8.77948318E-02 -4.86700074E-01  1.83630743E+00 -3.72870131E-02
  3.02079429E-02  3.44202467E-02 -2.76516483E-03 -4.82459185E-03 -1.66850694E-02
  3.76561628E-03  1.60562895E-02  2.25706668E-02 -3.69085021E-02  6.44785040E-03
  4.89702364E-02  8.37888053E-02  6.17638786E-02  1.24112076E-02 -4.27259399E-02
 -4.28559845E-04  2.38623822E-03  3.23129781E-03  4.35004877E-04  3.95467289E-03
 -2.93518781E-03 -4.79770320E-03  4.46176577E-03 -3.50944325E-02 -2.60539325E-02
  1.34141002E-02  4.21738236E-03 -5.52375504E-02 -6.86250268E-02 -6.77197339E-03
  4.44549051E-02 -7.69307531E-02  7.36512350E-02  4.43396002E-03  5.67819605E-03
  1.77927394E-03  6.59631728E-03  7.90497350E-03 -1.86864981E-03 -1.24685501E-03
 -2.01841837E-01  2.23900012E-01  3.43678555E-03 -1.11580702E-01 -6.18215211E-01
  5.52794165E-01  9.02544298E-03  2.58137362E+00  1.99879734E+00 -4.44821148E-01
 -2.89464773E-02  6.94418879E-03 -5.13822762E-04 -4.97585663E-03  5.43021179E-02
  7.30570384E-02 -5.78502697E-03 -8.85640711E-03 -1.05311410E-01 -1.47548088E-01
 -1.45771826E-02  6.14688913E-03 -1.89197648E-01 -4.10912489E-01 -5.62498647E-02
 -1.48746405E+00  1.52622591E+00  7.31096233E-01  1.36366962E-01  2.05253260E-02
  1.46160374E-03 -9.01171292E-03 -7.37293437E-02 -4.15760512E-02  3.50547587E-02
  3.73012437E-01 -1.17929358E-01 -4.89956426E-02 -3.92986523E-03 -1.46088873E-03
  2.82399578E-02  1.78345948E-01 -8.60545008E-01 -2.23893074E-04  3.84207117E-02
 -6.57865512E-03 -2.11214588E-02 -1.67581145E-01 -6.25702585E-02 -3.91533579E-02
 -2.93168351E-02 -1.17965808E-03 -2.89425090E-02 -2.22386306E-01  2.09365719E-01
 -4.32159038E-02 -2.22729451E-02  9.13938202E-03 -5.04203519E-04 -8.11261073E-04
  9.43694921E-02  3.99026300E-02  3.30425915E-03 -2.74460314E-04  1.79346680E-01
  6.91619263E-02  9.61658980E-03 -1.80582021E-01 -1.51542625E-01  2.90663297E-02
 -8.80713632E-03  6.16990851E-03  5.84672705E-04  5.87551745E-04 -8.16011674E-04
 -1.89210577E-02  2.38250741E-02  4.05341479E-02 -1.02581647E-01  8.46481791E-02
 -5.90247338E-04 -1.44540033E-01 -1.53502480E-01  1.12747271E-01 -4.41053199E-03
 -8.43231408E-02 -4.50146452E-01  4.10307684E-01  1.87304397E-02 -1.53298250E-02
 -8.21572567E-05  1.20468533E-03 -1.18628079E-02 -2.81501194E-02  9.50559279E-02
  1.89061910E-01  1.28497294E-02 -9.54627270E-02 -2.42234306E-03 -1.50536804E+00
 -1.79817960E-01 -2.89535890E-01 -2.84921138E-03  4.54683790E+00  1.89952249E+00
  3.48812276E-01 -9.76095307E-03 -6.64028602E-02 -8.02638493E-04  2.81314104E-03
 -3.48427002E-02 -6.86781770E-02  4.00055896E-02  7.95724086E-02 -1.35805662E-01
  6.17200691E-02 -3.14176112E-03 -5.78429666E-01 -2.18764998E-01  1.87160890E-01
 -1.34085330E-02 -9.75344487E-01  2.27947721E+00 -5.41089838E-01  5.90709965E-02
  7.98976724E-02 -1.11443789E-03  5.01673999E-03 -8.78273027E-02  1.79611582E-03
  2.36569163E-02  7.96737298E-02 -1.38682842E-03  2.50197032E-02 -1.15055882E-02
 -1.02175454E-03 -9.57457569E-04  1.36341235E-02 -2.48552540E-01 -4.60725181E-02
  4.17178894E-02 -2.03428997E-03  9.44289535E-03  4.72570489E-02 -8.62186246E-01
 -2.48938179E-02 -1.99363466E-02  6.56195953E-02  1.21444406E-02  7.64199349E-02
 -8.76253256E-01 -1.69763260E-02 -3.23636745E-02 -6.08517988E-02  1.55346404E-03
  1.62188035E-03 -1.92077144E-02  6.84091447E-02 -1.79977636E-03  3.44683796E-02
 -2.61324416E-02  1.35621375E-01 -5.70797384E-03 -4.68430450E-01 -2.01796016E-01
 -3.32549128E-01  9.63474032E-03  1.64250683E-02  3.58503137E-04 -5.12298441E-04
  2.20422848E-02 -3.91287124E-03 -1.94567168E-02 -3.42320589E-02  1.46597527E-02
 -1.14400898E-01 -5.49142583E-04  1.68226456E-01 -3.11736269E-02 -1.54359643E-01
  1.19778578E-03 -4.91074971E-01 -5.94565319E-02 -6.92185888E-02 -3.18905826E-03
  3.62339180E-02  9.54719868E-04 -1.26181246E-03  1.17438717E-02  3.58363118E-02
 -6.72942747E-03 -2.29703312E-02  2.42346525E-03 -1.86115977E-02 -1.37241391E-03
  4.14465179E-01 -2.44013649E-01  3.20817135E-01  4.79290139E-03  8.90106730E-01
  1.30738172E-01  4.81573034E-01  2.44650663E-02 -6.85484210E-02 -1.66976726E-03
  4.72170483E-03 -6.82315355E-02 -2.01290595E-01  5.48620175E-03  1.08560104E-02
 -8.56040984E-03  3.28363630E-02  4.01239155E-03 -9.25747320E-02 -5.32276937E-02
  3.34025944E-02  1.69737051E-02 -9.50880506E-02  2.28665270E-01  1.23966727E-01
 -3.45849410E-02  9.60862918E-03  1.04419317E-03  8.49993361E-03  2.15151074E-02
  1.51120451E-01  2.63137360E-02  1.95337101E-01  1.86438784E-01  7.77119010E-02
 -6.75392786E-02  3.53878169E-05  3.07163036E-02 -1.19404681E-01 -1.68771085E-01
  7.33528593E-02 -9.47479607E-03  6.46733469E-03 -9.52279267E-03  7.69793683E-02
 -2.28675941E-02 -3.04572487E-02  5.26513500E-02  2.85066011E-02 -1.31836808E-02
  1.20619565E-01 -7.82291904E-02 -4.10825877E-02  3.94554760E-02 -3.25806358E-02
 -1.23970978E-02 -2.33830291E-02 -6.99814240E-02  1.79961146E-03  1.23105843E-02
  1.44370429E-01 -1.70942831E-01 -2.53978152E-02  3.81299617E-02 -1.36122786E-01
  4.81361945E-01  2.27407769E-01 -5.92848090E-02 -1.13442190E-03 -2.49412069E-04
  6.14004684E-04  5.86933258E-03  1.90996486E-02  2.31751950E-02  3.93652957E-02
  1.16504999E-01 -1.58235763E-01 -9.18144762E-03 -9.28838418E-02  3.52739575E-01
 -4.45499190E-01 -2.75071557E-02 -9.38863339E-01 -1.01521378E+00  1.27596243E+00
  4.85635251E-02  5.32208566E-03  9.86529816E-05  5.09220511E-04  3.80182261E-03
  2.61848732E-03 -2.97924041E-02 -5.35928521E-02 -4.25737905E-02  1.02704309E-03
  4.75887483E-03  4.17416794E-01 -1.23151876E-01  7.76605832E-02 -5.52743311E-04
 -4.81209241E+00 -1.47899632E+00  1.19819757E-01 -3.23194333E-02  1.09004043E-01
  6.15455765E-04  2.67104618E-03  3.22961454E-02  4.06080576E-02  7.06190564E-02
  1.45525055E-01  1.96407287E-02  1.19982954E-03  3.13842176E-03 -1.58553621E+00
  7.82819585E-02 -7.40623410E-02  1.35377827E-02  7.03469117E+00 -1.15428551E+00
  4.23044277E-01 -3.54369159E-02  1.34032410E-02  4.13593366E-03  9.62499234E-03
 -2.97979134E-02  4.49889978E-02 -4.84995013E-02  1.73794867E-01  4.34723674E-01
  1.20534031E-01  6.00730934E-02  2.88871560E-03 -1.34602707E-02 -1.09197750E+00
 -5.60875652E-01  5.34104954E-02  1.04792825E-01 -1.87258033E-03 -2.92669298E-03
 -8.52249277E-01 -3.73820752E-01  5.04213958E-02 -1.40443490E-02  1.01146823E-01
 -8.88247312E-03 -8.38217459E-01 -4.41072814E-01  3.22830368E-02 -4.21886333E-02
 -9.76966695E-02 -3.24258729E-03 -4.33017383E-03 -1.15851210E-01 -7.96781262E-02
 -9.76034630E-03 -6.29945664E-03 -3.09495266E-01 -2.02881051E-01 -2.98494367E-02
  4.57851177E-01  9.96792670E-01  5.78235030E-01  4.98890720E-02 -1.32549031E-02
 -2.85208483E-04 -5.63366749E-04 -1.83305919E-02 -9.84788865E-03  5.99077965E-03
  1.23782741E-02 -1.83817177E-02  8.88440699E-02 -4.74131782E-03 -1.13297424E-01
 -1.72567283E-02  2.10435858E-01 -1.68031612E-02  6.75602757E-01  2.68973881E-01
 -4.30469914E-01  2.62062603E-02 -2.38177884E-02 -3.45515977E-04  8.69130915E-04
  3.51799446E-03 -8.92370201E-03 -1.69474725E-03 -4.93209517E-03  5.02794428E-03
  1.90956210E-03  1.85146839E-02  7.22954408E-02 -9.44345826E-03  3.27963729E-05
  3.46872733E-02  6.32498674E-03 -1.41252762E-01 -7.74774361E-02 -4.47505143E-01
 -1.03363082E-02 -4.86357628E-03  9.93377510E-02 -9.85631878E-03 -7.56490390E-04
  4.72318911E-04  7.71257438E-04 -8.13648078E-04 -8.77675988E-03 -2.88997460E-02
 -9.67055047E-03 -5.39023175E-03 -3.74510692E-02 -1.10470124E-01  1.14574863E-01
 -6.30601818E-02  1.63433560E-01  5.73113225E-01  4.91256219E-04  1.89239908E-03
 -1.55900363E-02  3.45171059E-03  7.53333863E-03  3.83484676E-03  2.53830867E-02
 -5.98950900E-02  8.27773196E-04 -7.97947617E-05  4.50065629E-02  1.06752122E-03
 -1.46526049E-02 -7.68637706E-02  3.32026803E-03  3.08237168E-03  1.99895900E-02
 -4.72855416E-03 -4.61260438E-02 -2.93173458E-01 -6.10716529E-03  8.60009447E-03
  5.88709280E-03  1.16624986E-02  5.66359047E-02  3.73130488E-01  1.12842883E-02
  5.15133148E-03 -1.86758703E-03  2.12419678E-03  3.67577719E-03  9.93977938E-05
  1.39362458E-02 -2.19825833E-01 -1.27332446E-02 -1.14594732E-03  4.48932104E-02
 -6.95313937E-01 -7.14535136E-02  2.66363825E-03 -1.19034916E-01  1.16746978E+00
 -4.79803579E-04 -4.78454667E-03 -2.45827565E-02 -1.80524096E-04  1.79920786E-04
  1.52505561E-03  2.63258853E-03  8.78151300E-03 -1.10939027E-02  1.26147839E-01
 -8.37751257E-03  2.78758552E-02 -3.42280078E-02  3.73282120E-01 -3.56787627E-02
 -5.29394320E-02  9.39917805E-02 -4.87957262E-01 -8.29535184E-04  2.79444961E-03
 -1.10324040E-02  8.29558201E-04 -1.35463354E-03 -2.31288222E-02 -5.88737718E-02
  6.20716983E-02  1.99767722E-02  1.31339344E-03  7.65793091E-01 -1.45498790E-02
 -2.90028859E-01 -1.52874179E-03 -1.69678570E+00 -2.62738372E+00 -3.47521638E-01
  3.15179734E-02 -9.40333453E-02 -5.27357708E-04 -6.85351831E-03 -5.60664604E-02
  1.62373422E-01  2.62964544E-02  5.33829394E-02 -1.01659307E-02 -4.23813065E-02
  8.92656640E-03 -6.10331642E-01 -7.04067157E-02 -1.49861699E-01  3.41364274E-02
  4.09981816E+00 -1.08596451E+00  4.27770308E-01 -1.16104047E-01 -1.58600585E-02
  3.08262275E-03  8.81907547E-03  3.38327248E-02 -2.83020277E-02  9.55474961E-03
  3.17555822E-01 -7.78129364E-01  1.31242509E-02  6.92723454E-02 -2.07084488E-03
 -6.31097372E-03 -3.20687831E-01 -3.94702870E-01  2.72948551E-02  4.22194865E-02
 -3.35830149E-03  3.02216095E-02 -3.14917295E-01 -1.28867129E-02  5.53980047E-02
  2.84167601E-03  3.85167229E-02  2.78500769E-02 -3.17569854E-01 -1.58384022E-01
  4.33257191E-02 -9.25782333E-03 -3.88431907E-02  3.68309876E-02  6.59693419E-02
 -1.98282445E-03  1.80106270E-01  1.23277835E-02 -2.87112318E-01 -3.34733863E-02
  6.26374144E-01  3.94322288E-02 -4.82366638E-01  1.57332281E-01 -1.75029413E+00
 -6.71127713E-02 -1.73749904E-02  8.43989124E-05  1.64519687E-03 -1.64474645E-02
 -1.60298202E-02  1.33888568E-02  2.42732589E-02  1.31256606E-02 -1.59954605E-02
 -1.33440416E-02 -1.35997857E-01  5.46477146E-02 -7.46116478E-02 -4.16363454E-02
 -1.01521138E-01  1.89652050E-01  1.84526603E-01  6.03440307E-02 -8.46424845E-03
 -7.49730586E-04  1.45748928E-03  1.13269932E-02 -1.60590029E-02  7.44963030E-04
  2.05516982E-03  1.79206067E-03 -1.72351003E-04  9.80637345E-02 -2.71397450E-02
  1.31312670E-02  1.83267268E-02  6.05092886E-02  1.44825056E-01  1.64688188E-02
 -3.83932687E-02 -8.17226134E-01 -6.44933277E-03 -8.97010290E-02  4.32038970E-03
  1.53518792E-02 -1.04679799E-02 -3.17221089E-03 -6.90599030E-03 -2.64389566E-03
  1.75326004E-03  2.35909637E-02  8.88857777E-02 -1.25906063E-02  1.03129790E-02
  9.88697967E-02 -3.42694482E-01  4.30904454E-02 -4.07539958E-03  1.32444025E-01
 -2.35685524E-02  1.81997920E-01  1.10256119E-01 -1.03941402E-02 -5.85203462E-03
  3.22577454E-03 -1.55166547E-02  4.88326043E-03 -7.09734321E-03 -4.56827692E-03
  9.26626720E-02  1.00448528E-03  7.05940704E-02  1.32423473E-02 -1.65742984E-02
  8.37396733E-03  1.35480926E-01  2.14103831E-02 -3.39130780E-02  1.03989454E-01
  1.55774121E-01  6.46303050E-02 -3.13367894E-02 -1.41197705E-02  1.60401638E-01
 -6.18148043E-02 -1.33023179E-01 -7.61516472E-02  4.50558675E-03  1.51013567E-03
  3.03042409E-03  1.48835557E-03 -3.26686049E-03 -1.06728192E-01 -2.47985036E-02
 -1.92283060E-03 -1.24818163E-02 -3.33525989E-01  1.84846126E-02  3.47133602E-03
  4.21320774E-02  6.43893126E-01  1.76277259E-03 -1.79040297E-02 -2.39636446E-03
  1.37755278E-03  1.62914828E-04  8.67386764E-04  1.74916341E-03 -1.38627620E-02
 -7.57968292E-03 -1.96196515E-01 -1.11317818E-02 -5.17201764E-02 -2.45657323E-02
 -6.30488672E-01  2.59543725E-03  9.27925735E-02  6.04650419E-02  1.12309066E+00
  9.79920449E-04 -1.38101454E-02  7.55572210E-03 -3.30872657E-03  2.35840406E-03
  1.17418633E-02  2.12723889E-02 -5.12185234E-02 -3.04447246E-03  8.46246529E-03
 -2.31610730E-01 -1.03528855E-01 -1.39025266E-01  1.04745636E-02  1.94459744E+00
  1.95098606E+00  6.56847517E-01 -1.62174278E-01  1.91843144E-02  1.78116186E-02
 -2.37135203E-03 -2.33179256E-01  8.32034085E-02 -5.45748920E-03 -1.10211599E-02
  5.91977482E-03  8.45929313E-03 -5.57423939E-03  6.66793449E-02  9.39252683E-02
  6.31476758E-02 -3.04381807E-02 -1.88900162E+00  7.30741983E-01 -5.85309578E-01
  1.65127579E-01  7.67093706E-02 -7.80058229E-03  6.16608814E-03 -3.15078406E-02
  2.29888059E-02 -1.25746235E-02  1.68287875E-02 -5.79900855E-02  1.06035867E-02
 -5.07969316E-02  1.17416778E-02  1.63900172E-02  5.73063288E-02  4.15954940E-01
  4.19053564E-02 -5.08348260E-03  3.39789172E-03 -1.77272227E-02 -1.09193014E-01
 -1.53416221E-01 -6.97204503E-02 -3.79350302E-03  9.08274286E-03 -5.63882399E-03
 -8.30055902E-02 -6.19391941E-02 -5.55144169E-02 -9.50346564E-03 -5.70666952E-03
 -1.95679635E-02 -3.81894982E-02  3.79410904E-02  1.88952997E-02 -9.03061225E-03
  2.82963786E-01  1.54910039E-01  4.13114100E-02 -3.18324659E-02 -1.46648124E-01
 -6.14906476E-01 -2.31043809E-01  8.01994519E-02 -6.69137507E-03 -1.49738568E-03
 -1.97738150E-03 -2.92174648E-03  1.43278766E-02 -4.60763809E-03 -9.31142212E-03
  1.60642450E-01  1.14901874E-01 -2.06612164E-02  6.52677776E-02  5.76910819E-01
  4.01777650E-01 -7.12387569E-02 -1.45051353E-01 -1.38397319E+00 -9.04410057E-01
  1.55573901E-01  9.60544184E-03 -2.07169070E-03  2.69169019E-03  3.96198431E-02
 -2.13587708E-02 -3.26150766E-03 -1.17324901E-02  5.72023110E-02 -2.59988559E-02
  1.03362370E-02  3.00350483E-01  1.08284565E-01  6.32818660E-02  3.13904418E-02
 -2.25425651E+00 -1.26382607E+00 -6.43784949E-01 -7.31113723E-01 -1.18119719E-02
  2.77773947E-01 -4.80348858E-02 -9.57167622E-02 -9.05213076E-02  3.01536755E-02
  6.59393761E-02  2.19341229E-02  8.97219336E-03 -3.04856084E-02 -8.46874395E-01
  1.36938216E-01  6.34586074E-02 -8.52709753E-02  4.03260458E+00 -1.05312179E+00
 -8.33944062E-02  5.12571341E-01  5.29856771E-03 -2.54081940E-01 -1.47256123E-01
 -6.89746309E-03 -7.81001626E-02 -1.36376966E-02 -1.10360866E+00 -1.83166822E-01
 -1.78614180E-01 -7.39614910E-02  2.41591878E-02  5.36567601E-04 -4.88324111E-01
 -4.60320460E-02  5.17637527E-03  2.52870696E-02 -1.31679740E-01 -4.87810947E-02
 -6.21650270E-01 -2.80581445E-01 -1.15527781E-01 -1.69824286E-01  4.08509417E-02
 -1.64658317E-03 -5.65469551E-01 -5.42745525E-05  1.48844633E-01  4.32106986E-02
 -2.57204115E-02  8.88006442E-03  1.87575574E-02  1.05933465E-01 -2.70144818E-02
 -2.34035150E-02 -2.01753132E-01  3.71450565E-01 -8.85921775E-02 -1.15406055E-01
  6.89676995E-01 -1.47896512E+00  2.52772698E-01  3.69027172E-01  7.26524395E-03
  6.54136557E-04 -2.57107634E-02  2.20629343E-02  3.24854205E-02 -7.83847370E-03
 -1.42224286E-02  4.57560360E-03 -5.45490997E-02 -5.28996754E-02  8.73722999E-02
 -4.71138457E-02 -1.71752023E-01 -2.10210392E-01  1.85098039E-01  2.41503812E-01
  4.02599809E-01  6.26042585E-01 -1.30289130E-02 -5.71584071E-03  3.01376045E-02
 -6.38346592E-03  1.63803309E-02 -7.63714166E-04 -5.38976969E-03  4.24448333E-02
 -2.39475891E-02 -1.16956311E-02  2.08480269E-01  8.97191681E-02  5.77825067E-02
 -3.09114293E-02 -1.77374875E+00 -8.66251044E-01 -5.36766906E-01  7.43140911E-01
 -8.86074703E-03 -3.13829760E-01  5.67924776E-02 -1.14199320E-01 -7.00224412E-02
  2.70451832E-02  5.99687114E-02  2.21088123E-02  7.38106294E-03  3.32068739E-02
 -7.75327060E-01  1.31507030E-01  6.68411159E-02  6.56668874E-02  3.41734245E+00
 -8.23181835E-01 -1.35769712E-01 -4.43529359E-01 -4.32959128E-02  2.84567966E-01
  1.43377509E-01 -3.91082177E-02 -7.21668753E-02 -1.52071140E-02 -1.04739728E+00
 -1.74304593E-01 -1.70468586E-01 -8.02741910E-02 -3.60082281E-02 -5.55195501E-03
 -4.40865838E-01 -3.37938638E-02 -2.02837297E-02  4.71555715E-02  1.43015312E-01
 -4.95328244E-03 -5.25971441E-01 -1.38022365E-02  1.45433977E-01  3.71731117E-02
 -9.81331427E-03 -5.20451557E-02 -5.62090944E-01 -2.60160175E-01 -1.15716182E-01
 -1.78097429E-01 -2.13088849E-03  9.43792821E-03  1.99895139E-02  1.02987361E-01
 -2.47977668E-02  2.56088125E-02 -2.08649598E-01  3.56376751E-01 -8.62976951E-02
  1.21975812E-01  7.03981099E-01 -1.45456022E+00  2.45172850E-01 -3.85823540E-01
  8.11396931E-03  5.85187616E-04  2.76270870E-02  2.03911825E-02  3.24418846E-02
 -5.23553399E-03 -9.14872038E-03  1.99617998E-02 -3.91306928E-02  5.22519993E-02
  5.31705605E-02  1.01091905E-02 -1.18745446E-01  2.13724580E-01  1.89568225E-01
  7.17596618E-02  2.88395893E-01 -6.54880269E-01 -1.27146292E-02  7.87784172E-03
 -3.35241756E-02 -2.09803225E-03  1.34942155E-02 -6.55249949E-03 -1.62000856E-02
  1.94762831E-02  1.42724313E-01  1.87893738E-03  1.66424287E-01  4.34121821E-02
 -3.01582218E-01 -2.45407475E-03 -8.93862380E-01 -9.98821607E-01  2.55880981E-01
  3.30426767E-02  7.67678193E-02  1.71541880E-02  6.77465938E-02  2.12251687E-02
  6.48089252E-02  3.12496234E-03  7.54531213E-03 -1.54067753E-03 -4.23055541E-03
 -1.81063897E-03 -1.45037459E-01 -1.05629212E-02  9.11753821E-02 -4.15350282E-04
  1.47471003E+00 -4.54827672E-01 -8.52914683E-01 -5.71303726E-02  2.01314445E-01
 -1.14963309E-02  7.79773875E-02  1.18963556E-01  3.29647213E-01 -5.68924603E-02
  7.84692248E-02 -4.87193432E-02  5.99690116E-02 -6.79335855E-02  3.94813071E-02
  1.85605938E-02  1.73233224E-01  1.60998119E-01  4.05801818E-01 -1.38286568E-01
  3.08306368E-02 -1.25228166E-02 -2.38909532E-01 -7.27954633E-02 -1.58172197E-01
  1.00201829E-01  1.23668635E-01 -1.84131793E-02 -3.35414592E-01 -1.37395789E-01
 -2.22925003E-01  5.60438205E-02 -1.63206566E-01 -4.08480713E-02 -8.02951917E-02
  5.93231079E-02  3.65192841E-02  3.66938237E-03  5.99478645E-01  2.00568687E-01
  9.12798797E-02  8.15086117E-03 -8.25642385E-01 -2.93793288E-01 -3.94227843E-01
 -9.85095878E-03 -6.25177039E-03 -8.50795707E-03 -6.14514470E-03 -1.79873294E-02
  4.76802718E-03  2.16622945E-02  4.06484157E-02 -9.31325478E-02  2.12758254E-02
 -6.67191663E-05 -2.82689469E-01 -2.20971204E-01 -1.18082734E-02  6.41613012E-04
  2.64711412E-01  6.59816165E-01 -1.15688562E-01 -3.48363665E-02  5.03360842E-03
  5.05365755E-03 -1.49239173E-03 -1.26199131E-02 -8.69665498E-03  1.13623489E-03
  3.08534020E-03 -2.57108928E-03 -1.62999828E-02  1.78011583E-02 -3.53574203E-02
  4.13129717E-04  2.45789236E-02  5.51999659E-03  9.13446451E-02  1.70363052E-01
  1.79387022E-02  3.53414288E-01 -3.52616474E-03  1.06938885E-01  6.80212406E-01
  5.31435466E-03  8.72957080E-03 -2.93541482E-04 -6.54347056E-04  1.15351363E-03
  6.67732620E-05 -1.88347258E-02  1.42333447E-02  8.55510862E-03 -7.22430447E-03
 -3.06090275E-02 -1.76767435E-01  7.96545614E-02 -5.02132837E-03 -4.28826641E-01
 -3.20205077E-02 -1.15905358E-01  1.89836792E-01 -1.74258944E-02 -4.83032948E-02
  4.15495706E-03 -2.63451431E-02  1.19696544E-02 -1.22748177E-02  1.18289647E-02
  6.13891087E-01  3.08237461E-04  6.46291573E-03 -2.68571948E-03 -3.49912085E-02
  1.00158744E-02 -4.38874317E-02 -1.58695143E-02  3.04607044E-01  5.23431383E-02
  4.95593660E-02 -1.70919412E-02 -2.39893321E-02  1.09443253E-02 -2.84774108E-01
 -6.01624791E-02 -2.16019351E-02 -1.59249932E-02  8.83934198E-03  5.12412677E-03
  1.02242466E-02 -3.68691907E-03 -5.50077519E-03  5.37169307E-02 -8.05336613E-02
 -1.47565743E-02 -1.45612386E-02  1.27781605E-01  1.51901828E-01  4.84824408E-03
  6.21604037E-02 -2.83685880E-01  7.81928063E-04 -1.25613610E-01 -6.04724613E-02
  1.43910300E-03 -1.77976782E-03 -4.99137843E-04 -6.86151321E-04  7.58475476E-03
 -3.07022434E-03 -2.32517008E-02  1.55900884E-03  1.81795690E-02 -3.69763563E-04
 -1.75361792E-02  1.80797444E-02 -6.42896719E-02 -5.42851589E-03 -3.08038477E-01
 -2.41414444E-03  5.76143280E-02 -2.93664032E-02  2.50129333E-03  6.63526708E-04
 -5.98172393E-04 -2.15366193E-03  7.56492354E-03  1.14198199E-03  4.32590691E-02
  3.56299984E-02 -2.89677884E-02 -1.00107384E-02  6.80605291E-02  1.75432485E-02
 -7.04293987E-02  4.52520492E-02 -2.81960302E-01  1.23982375E-02 -6.04688203E-01
 -2.09364516E-01  2.82879905E-02 -2.49244042E-03  1.19288777E-03  2.90055579E-03
 -1.82075179E-03  2.67774888E-04  4.89347483E-02 -3.02463568E-02 -1.12049291E-03
  1.06670730E-02  6.29028199E-02  7.75491586E-02 -3.84897939E-02 -8.71416599E-03
  6.53899436E-01  6.59339059E-02  1.32114225E-01 -3.15680349E-01  5.57716627E-02
  1.35664116E-02 -2.43958905E-03  4.01091697E-02 -9.99139353E-04  3.51805785E-03
  4.55043278E-02  5.15091458E-01 -9.89114183E-03  5.33137677E-02 -1.04409464E-02
  4.43757324E-02 -7.79401575E-03 -1.81519202E-02  6.78473180E-02 -5.84186335E-01
  5.54358248E-02 -3.40454058E-01 -5.50620523E-02  1.07394952E-01 -6.80362189E-02
  5.59162146E-01 -6.52802004E-02  3.02751551E-01  7.33326602E-02  9.38691778E-02
 -2.96379981E-03 -6.09372175E-03  4.23073169E-04  9.81442517E-04 -3.17518650E-02
  4.91013220E-02  2.10014739E-03  1.43703561E-02 -1.05936481E-03 -7.89869660E-02
  3.26639822E-02 -6.14172710E-02 -3.09840275E-01 -3.61748505E-03 -7.76972318E-02
  8.12440377E-02 -4.93689376E-03 -7.41961245E-03 -3.69368359E-03 -7.53759034E-03
 -6.77181351E-04 -7.80680427E-04 -2.36420317E-02  6.06384641E-02  1.30507570E-03
 -3.64368132E-03 -5.50295418E-02 -1.25535201E-01  1.72010246E-03  4.23113915E-02
  6.56168450E-02 -6.81868402E-04 -2.08765586E-02 -4.05548154E-02 -5.47084679E-03
 -5.47285809E-04  2.78169962E-02  7.58501635E-02  6.40843776E-03 -2.59336955E-02
 -1.04204840E-03 -7.97004488E-01  2.56926850E-01  2.40821208E-02 -3.47746928E-03
 -9.45908633E-01  3.97615130E+00  8.38744852E-01 -3.88802250E-02  8.02190919E-02
  8.26621959E-03 -4.92329116E-02  3.57093898E-01  5.06262293E-02 -1.14402442E-03
 -3.03374603E-03  1.36777398E-02 -4.04342943E-03  1.14985156E-03  1.95823562E-01
  2.47924371E-01 -2.28560375E-02  5.80901909E-03 -3.38409592E+00  9.53425870E-01
 -4.24437902E-01  1.16030424E-03  5.24847762E-02 -1.77923398E-02  1.85876847E-02
  5.72643815E-02  1.64410938E-01 -4.10871146E-03 -8.69041548E-01  4.84222685E-01
 -1.74884094E-01  2.47684365E-01  1.66402831E-02 -1.27880430E-02  3.61094825E-01
  8.04044379E-02  1.10850580E-01 -3.09708019E-02 -3.94923025E-03 -4.63295831E-03
  1.84854261E-01  5.04459510E-02 -4.29009339E-03  4.59703904E-02  6.16262023E-02
  3.75536971E-04  1.62012438E-01  2.55597583E-02 -1.55481479E-02  2.59725570E-02
 -6.30392440E-02  6.75589328E-02  1.41699658E-01  4.38228943E-02 -3.12833243E-02
 -3.62013306E-03 -1.32096019E+00  6.70723033E-02 -1.04615331E-01 -4.08716203E-03
  3.87811242E+00 -6.32155492E-01  1.38229924E+00 -8.67875910E-03  2.60625456E-02
  2.10639036E-04  5.93533035E-03  1.10621095E-02 -6.11043499E-02  5.94701455E-02
  1.22352729E-01  5.76111089E-02 -1.21960328E-03  2.90361020E-03 -1.06250321E+00
  2.40440433E-01  2.40887339E-02  2.70484979E-03  2.88203041E+00 -3.73180472E-01
 -1.18309366E+00  3.48070298E-03 -8.30473613E-03 -6.11658405E-03  3.08505377E-03
  3.40544400E-02  2.69457452E-02 -2.30669995E-03 -3.93588514E-03 -1.73876830E-02
  4.23400300E-02 -1.00988373E-02  8.66548209E-03  2.44868813E-02  1.56708404E-02
  7.41517372E-04 -1.26973998E-01 -2.41870528E-01 -1.42557457E-01  1.99006392E-01
 -3.92222246E-02  1.25446296E-01 -3.51860274E-01 -6.34351155E-02 -5.37224900E-02
 -6.80758644E-04 -1.08043797E-03 -1.71157928E-03  1.12712198E-02 -2.35285818E-02
  1.34220419E-03 -3.41507849E-02  1.82590151E-02 -5.96293893E-02  1.86787287E-01
 -8.53072741E-02  3.04352126E-01 -3.95734309E-01 -2.12985922E-01 -1.23387638E-01
  1.25528299E-01 -1.40323657E-01  1.19080022E-01 -4.29130969E-03  6.66992749E-03
 -3.70864741E-02  1.13083138E-02 -8.81961243E-02  2.85230326E-01  7.45799392E-02
 -4.14170993E-01  7.56018607E-02 -2.36773542E-04 -7.46361327E-02 -3.78551170E-01
 -1.18874100E-01  5.70825705E-01 -5.66221278E-02  3.25376964E-02  4.44160463E-01
  2.08123830E-01  4.30786401E-02 -1.55627720E-01 -6.15845701E-04 -3.55626761E-02
 -4.77555833E-01  3.01532130E-01  5.19263026E-04  1.32484664E-03 -4.31760590E-04
  1.16530653E-02 -2.31953915E-02 -8.43823263E-03 -5.38383741E-03  1.06829627E-02
  1.25585426E-03 -7.01799824E-02  3.34195166E-02 -1.72996932E-02 -2.33821768E-01
  4.41940270E-03 -1.74008585E-02  4.65633954E-02  7.08027549E-03  1.32619857E-02
  6.14820931E-03  1.20192029E-02 -1.57597207E-02  1.49322986E-02  3.80986069E-02
 -7.91253529E-02 -4.61204009E-02  4.46143930E-02  7.31129675E-02  3.41127237E-02
  6.56259468E-02 -2.45954547E-02  4.54241083E-03  4.10731575E-05 -3.73233310E-02
  3.53343349E-02  3.93716388E-03 -6.05950700E-05  3.81921048E-03  1.53083834E-02
 -4.96759463E-02  4.08069895E-02 -8.84183243E-03 -2.33662977E-01  2.22489915E-01
 -2.05314437E-01 -3.56284924E-03 -1.00438771E+00 -3.72249401E-01 -1.91489210E+00
  1.66019289E-01 -5.60151087E-02  7.05626405E-02 -2.51120830E-01 -1.32635282E-01
  2.22744431E-01 -2.86356309E-03 -3.93290433E-03 -5.84892988E-03  1.64255030E-02
 -1.10334850E-02  1.51353896E-02 -8.63022007E-02  1.53097925E-02  5.50897336E-04
  4.33560390E-01 -1.99778000E-01  1.23587097E+00 -2.04016675E-01 -3.82364507E-01
 -4.71152809E-02 -3.36059123E-02 -2.71212060E-01  2.46428894E-02 -3.81774952E-02
  3.43000691E-01 -1.47685479E-01  6.98537998E-02 -4.10133500E-01  2.56561635E-01
  8.13901006E-02 -7.61519278E-01 -2.95335327E-02 -1.64212935E-02 -4.62475733E-02
  3.05166637E-01 -8.39838312E-02  4.87711053E-01  4.63683888E-02  5.32794367E-02
 -3.26341801E-01 -1.49781056E-01 -1.80304493E-02  2.75259292E-01  5.64301591E-02
 -7.95723996E-02  1.07797313E-01 -1.09112700E-01 -9.29380344E-03 -1.95695044E-02
 -2.58085799E-02  9.87165340E-03 -9.84560486E-03  2.33954138E-01 -6.24158155E-02
 -7.35412464E-02  2.04895530E-02 -1.31554189E+00  1.78233634E-01 -7.58903076E-02
 -2.35046588E-01  1.54227457E-02 -2.08843812E-02  3.85421462E-02  1.67229037E-02
  4.84012699E-02  5.46239701E-02  1.10580409E-01 -1.64939942E-02  7.22052065E-03
  3.52194463E-02 -9.27827844E-01 -3.99855358E-02 -4.94543736E-02  7.17827243E-02
  2.38629452E+00  6.07642157E-01 -4.52826356E-01 -7.08074483E-02 -8.09055456E-03
 -2.29803312E-02  2.16457974E-02  1.23551224E-02  1.47807714E-02  7.91405513E-03
  2.20922238E-02 -1.46470908E-02 -3.38762456E-02  2.14370048E-02 -2.38633601E-01
  2.05064951E-01 -2.10589851E-01 -1.50501037E-03 -1.02698386E+00 -1.75678617E-01
 -1.74507613E+00 -3.95300145E-01  2.01184036E-02 -1.79033627E-01  4.32710726E-01
 -2.76890334E-02  3.21877779E-01 -1.28947138E-03 -1.11986288E-03 -3.37490516E-03
 -7.20765062E-04  3.11084107E-02 -8.32612076E-03 -3.75441040E-02 -1.60420485E-02
  5.85261545E-02  3.97396459E-01 -1.61643687E-01  7.98831656E-01  5.72449653E-01
 -4.36670787E-02  1.28464939E-01 -2.46046233E-01 -5.23700172E-02 -1.76789036E-01
 -4.35346985E-02  3.26602442E-01 -1.09419247E-01  4.48899376E-02 -3.30724368E-01
 -3.83213089E-01 -4.44963235E-02 -1.25849250E-01 -1.68066181E-01  3.05329544E-02
 -4.91959107E-02 -3.77167096E-01  1.18501503E-01 -4.65077047E-01  1.10254180E-01
 -1.34055558E-01  8.60228028E-02  7.91877186E-02 -9.37892634E-02  5.27279125E-01
  1.07752116E-01  6.91596734E-02 -1.66942856E-01  1.47549449E-01 -9.60646089E-03
 -2.04679588E-02 -2.24520453E-02 -9.13280332E-03  1.56962228E-02  2.33251328E-01
 -4.92024019E-02 -9.42773816E-02 -3.59480699E-02 -1.18295775E+00  1.30237170E-01
 -6.32821896E-03  3.97886792E-01  1.33116557E-02  2.42461715E-02 -6.49593561E-02
  3.49816800E-03  3.53687218E-02  4.38732606E-02  8.94841085E-02  4.43867233E-03
 -2.08363465E-02 -6.06199983E-02 -7.90031335E-01  2.03804144E-02 -1.35200515E-01
 -1.21845106E-01  2.34493726E+00  5.65690264E-01 -3.84530766E-01  6.93143520E-02
 -8.64131822E-03  4.55944103E-02 -4.59552677E-02  4.38025269E-03  2.01783891E-02
  9.77086111E-03  2.07577096E-02  4.41531107E-02 -1.57444396E-01 -1.33758049E-02
 -1.34270136E-01  8.89698937E-02 -1.81256710E-01 -2.31679671E-03 -4.55478732E-01
 -7.12777565E-02 -1.08881663E+00  1.64312912E-01  6.44240002E-02  9.14526443E-02
 -2.76722061E-01  7.94788102E-02  3.94026005E-01  2.57921911E-03  6.12375453E-03
  9.19227418E-03 -2.63597132E-02 -1.36583876E-02 -7.93158879E-02  4.69620361E-02
 -7.10085635E-02 -4.99576608E-02  5.25939640E-01 -2.26082488E-02 -3.85054836E-01
 -2.94306453E-01  4.17101057E-01 -8.38411391E-02  2.33505460E-01  2.62789983E-01
 -5.36547047E-01 -3.35624271E-02  2.30820011E-01 -5.80526510E-02  1.79547831E-02
 -1.19538276E-01  1.98653354E-01 -2.72458359E-01  9.98602145E-01 -3.43566381E-01
  2.22750163E-03  1.11542247E-01  4.82005849E-02  4.26610473E-02 -2.96096477E-01
  1.05863956E-01  3.72790605E-03  1.47726293E-01  1.58542572E-02  1.98496907E-01
 -9.94292413E-01  1.51925700E-01 -8.38171192E-02  1.99180303E-02 -3.68204427E-03
 -1.37019012E-02 -2.96437226E-02 -1.30871092E-02 -4.14799371E-02 -1.42335009E-02
  3.07436078E-01 -1.51686902E-03 -1.18170062E-01  8.57430826E-03 -1.10891088E+00
 -6.09611425E-02 -4.45994679E-02 -1.91671192E-01 -1.67676418E-03 -8.81296866E-03
  4.04434547E-02 -1.51759355E-02  1.32338052E-02  1.13267036E-02  2.44217042E-02
  3.84153509E-02 -6.65215572E-02  3.18615411E-02 -2.89161668E-01  9.66367343E-02
 -2.53213603E-01  5.92800414E-02  1.41316237E+00  3.74223785E-01 -5.42839461E-02
 -3.03843259E-02  2.17472977E-03 -2.90316940E-02  2.74799039E-02 -1.39585449E-02
  2.42255430E-02  5.55033644E-03  1.11181512E-02  1.39481145E-02 -5.56517728E-02
 -2.68992699E-02 -1.36309344E-01 -2.27996081E-01 -1.30374211E-01  9.34469797E-03
  1.28407225E+00  5.66724380E-01 -5.90502079E-01  1.57194115E-01 -2.10392775E-01
 -2.02466726E-01  9.66978228E-02  1.01594757E-01  1.77567677E-01  4.02746754E-03
  9.58765449E-03 -1.92523832E-02  9.20041827E-03 -1.71131388E-02 -4.86168117E-02
  1.37252028E-01  5.58951877E-03 -8.58080802E-02 -8.94136651E-01  1.08840777E-01
  3.24059063E-01 -9.37446285E-01 -2.89692498E-01 -3.17758312E-01  4.81899441E-01
  4.12363773E-02 -5.44973976E-02 -4.78031431E-02  3.04537110E-01 -5.41635164E-02
  3.26090230E-02  1.94963818E-01 -2.32924278E-01  9.36413981E-03 -9.39040962E-02
 -1.20301629E-02  1.77946304E-01 -4.28075967E-02  3.01517936E-01 -2.38315638E-01
  1.23574201E+00 -1.19323231E-01 -2.96149922E-01 -1.17794237E-01  1.76747164E-01
  1.24560488E-01 -6.46090300E-01  5.94162952E-02  2.64868120E-01 -9.59140682E-02
  2.23926411E-01 -1.60843576E-02 -3.40551796E-02  4.41228816E-03 -2.62503180E-02
  1.68488368E-03  3.44129727E-01  1.63190902E-02 -5.43073244E-02 -2.14643610E-02
 -1.16180946E+00 -1.04472107E-01 -3.99271138E-01  1.28110974E-01 -2.09693021E-02
  1.25648241E-02  3.45668081E-03 -3.54001992E-02 -3.56263858E-02 -2.56048601E-03
 -4.57726826E-03  1.80508560E-02 -1.72495193E-02 -2.61734790E-02  2.00275679E-02
  5.49537737E-02 -3.75516712E-02 -5.16107306E-02  1.43857526E-01 -9.31986855E-02
  6.31064863E-02 -7.10080642E-03 -1.33479431E-02 -8.26899687E-03 -3.45220085E-02
 -4.96557755E-03  1.46924612E-02  1.29843014E-02  2.47392204E-02  3.06217841E-02
 -9.85516975E-02  1.33985033E-02 -2.48169961E-01 -4.52615161E-01 -2.18053977E-01
 -5.08760169E-03  2.34147624E+00  1.05422899E+00 -9.78734400E-01 -7.02985376E-02
 -3.34853348E-01  1.43721348E-01 -5.77939258E-02  2.07722333E-01  2.84833400E-01
  8.65368506E-03  2.17199272E-02 -4.28502101E-02  2.08289441E-02  5.22517413E-03
 -1.45374575E-01  2.45379935E-01  5.14009158E-02  2.92134814E-02 -1.64932118E+00
  1.04956953E-01  6.40859601E-01  5.04138520E-01 -2.88201883E-01  1.79142128E-01
 -3.04237982E-01  2.61645257E-01 -6.87191504E-02 -8.60508958E-02  5.23212847E-01
 -9.64995879E-02  4.84776142E-02  3.66916036E-01  1.12814713E-01 -3.37644031E-02
  1.58466801E-02 -5.37341676E-02  2.83694743E-01 -7.78951777E-02 -1.61422088E-01
 -1.14674626E-02  8.38524615E-03 -2.07790871E-02  1.95388936E-01 -1.77677265E-01
 -1.69029803E-01 -1.87631011E-01  1.02451224E+00 -4.29571551E-02 -1.70840688E-01
 -1.90368930E-01 -3.76541183E-02 -3.13634218E-02 -6.59024120E-02  1.65701707E-02
 -4.21107921E-02 -1.86819606E-03  6.42440733E-01  4.88030666E-02 -7.29401689E-02
  8.21409219E-03 -2.02944793E+00 -2.28401409E-01 -7.23163886E-01 -5.36390432E-02
 -3.68027138E-02 -3.27744291E-03 -5.15614071E-03 -6.76054308E-02 -6.64143165E-02
 -1.14011682E-02 -2.19981547E-02  4.28021704E-02 -3.13949056E-02  1.76269690E-02
  1.46344237E-01  1.29960062E-01 -7.00938092E-02  3.54425069E-02  6.96183094E-02
 -2.60681119E-01  1.47915708E-01 -7.03337140E-03 -2.13634667E-02  5.10397212E-03
  2.36489792E-02 -9.99943916E-03  2.25858923E-02 -2.47769900E-02 -5.06751876E-02
  5.31305464E-02 -1.61014249E-01 -8.51043257E-04  3.65976601E-01  2.15594448E-01
 -1.85191860E-01 -1.33259387E-03  8.29956764E-01  6.88734878E-01 -6.66743899E-01
 -1.58983751E-02  1.30947650E-01  7.21319709E-03 -1.54797089E-02 -1.90623628E-01
  2.64386577E-01 -1.48706787E-03 -9.20800980E-03  1.17330075E-01  1.88356995E-02
  2.35767856E-03  2.12365172E-01 -1.36345349E-01 -5.46261023E-02 -5.10899966E-03
 -9.08325590E-01  1.17279344E+00  5.43213072E-01  2.61629895E-02  1.59493969E-01
  4.22734669E-04 -2.96745119E-02 -4.66850636E-01 -1.18958751E-01  3.79666005E-02
  2.28047817E-02  3.94499974E-02 -6.95393773E-02  5.76769434E-01  2.49324029E-03
  1.20423180E-01 -4.33355276E-01 -8.36072861E-02 -1.65576744E-02 -1.31038945E-01
 -1.24048442E-02  1.15416061E-01 -2.01728340E-01  2.75866567E-02 -2.95574891E-01
 -1.87579507E-01  6.15337937E-04  1.18962183E-01 -1.62496788E-01  4.33981690E-02
 -3.43851881E-01 -1.93579535E-01 -1.39221478E-02  1.13505636E-03 -3.58430691E-04
 -2.97080671E-02 -5.55760119E-02 -2.17494550E-03  6.77973304E-02 -1.05578614E-01
 -8.01149969E-02 -3.55345680E-03 -4.83734227E-01 -6.70151251E-02 -3.42973838E-01
  6.30163825E-03 -1.63990033E-02  1.28783767E-03  5.65480780E-04 -3.24225520E-02
 -3.54715498E-02  2.73597160E-03  6.63104696E-03 -2.72284979E-02 -7.84076179E-02
  5.49855926E-04 -1.10537419E-01  3.26158466E-03 -2.01509470E-01 -9.39512445E-05
  7.94394561E-01  9.75754192E-02 -2.74708247E-02 -1.90237686E-03  1.07874960E-02
 -1.57035538E-03  2.81017757E-04  4.73323417E-02 -2.90123346E-02  2.87213060E-03
  5.24017464E-03 -1.64295449E-01 -1.59885406E-01 -9.39758908E-03  3.28274841E-02
  1.06796561E-01  4.80881195E-01  7.16377689E-03 -1.41451511E+00 -1.23899650E+00
  1.76132484E+00 -6.38362378E-03 -3.80168167E-02 -3.78037074E-02 -1.32025713E-02
 -3.36656758E-01 -3.00639476E-02 -1.38323551E-02 -3.21972127E-02 -1.39771649E-01
  4.70275237E-02  1.23559839E-02  2.11448636E-01 -9.38999640E-02 -2.49421964E-01
 -2.61509770E-02  1.13992530E+00 -8.91820351E-01 -5.71743378E-03  4.67231058E-02
  1.40039134E-01 -3.26247221E-02  6.12741052E-02  7.94738641E-02 -1.68717643E-01
  1.18290076E-01 -3.62815215E-01  9.83757934E-02 -9.21053807E-02 -3.47439952E-01
  3.59117811E-03 -1.63885081E-01  3.30535112E-01 -2.71409857E-01  6.62834302E-01
 -3.09333435E-01 -2.00373053E-02  8.34209855E-02 -1.61845528E-01  1.97206229E-01
  7.08095635E-02 -2.37792491E-01 -3.74910478E-02  1.14739619E-01 -2.58310714E-01
  2.99700998E-01  1.13878925E-02 -1.99140120E-01 -2.47519566E-02  5.23285140E-02
  1.06374012E-01 -5.60064338E-02 -3.01050963E-02 -3.44764764E-03 -9.27945297E-01
 -2.12362837E-01 -1.18169263E-01 -3.40713557E-03  2.26336237E+00  6.81083182E-01
  8.32534034E-01 -2.78510823E-03  3.52808293E-02  2.05730922E-04  8.22694814E-03
  4.78607864E-02  6.05071373E-02 -3.65586676E-02 -7.50112974E-02 -3.24205055E-02
 -7.87782843E-03  1.39469808E-03  6.87923819E-01 -7.98035849E-02  3.03047660E-02
  8.11106987E-04 -2.09856059E+00 -3.59782045E-01  3.51659718E-01  1.25105440E-02
 -2.35749765E-02 -5.59209688E-03 -2.59145065E-03  7.67919429E-02 -9.39569004E-03
 -2.18216166E-02 -3.25691506E-02 -1.33519165E-01 -2.04418940E-02  1.12913020E-03
 -1.72167176E-01 -5.90984575E-02  5.25577672E-02  5.48316130E-03  3.71111899E+00
  9.76130505E-01  2.18069789E-02 -5.11919695E-02 -1.02670732E+00 -4.79480185E-02
  1.45434762E-02 -3.69804353E-01  9.22225311E-02  2.63090547E-03  2.30623345E-03
  7.92739528E-02 -3.70355226E-02  1.34352268E-02  1.94184536E-01  1.44614254E-01
  1.13482257E-01 -2.86085329E-02 -2.41955198E+00  1.24478800E+00 -6.81550743E-01
  1.44195121E-01  9.55223220E-03 -7.19210729E-03  2.02395994E-02 -1.09855329E-01
  7.21877713E-02  9.20961793E-02 -1.02224704E-01  2.63906586E-02  2.36354187E-01
  1.25830018E-01 -2.08246877E-03 -2.57022608E-02  3.53432715E-01  1.76786384E-01
 -1.49042821E-01  1.53870755E-01 -7.63818820E-02  8.98128460E-02 -3.92313675E-02
 -1.66051390E-01 -1.02489123E-01  2.44283652E-01  6.97091076E-02  6.96657373E-02
 -4.31239895E-03 -1.20936688E-01 -8.73839289E-02  2.50729144E-01 -1.71318908E-01
  2.34618688E-02  4.43504052E-02 -4.05613787E-03 -8.68923313E-02 -7.54758214E-04
 -1.68274035E-01  3.12179451E-02 -2.88993112E-01 -1.63331705E-03 -9.70669636E-01
 -4.17322438E-01 -2.66580520E-01  1.17031813E-02 -7.11276627E-02 -1.78571191E-03
  8.97378189E-04  3.54368836E-02  2.71180648E-02  1.23188366E-02  2.48111540E-02
 -7.49361544E-02  3.21508087E-02 -1.88380984E-03 -1.07900838E-01 -2.34664680E-01
  2.12830984E-01 -1.37112459E-03 -8.80950186E-01 -1.91926166E-01  1.47013137E-01
  2.18527122E-02 -6.00578216E-02 -4.25281117E-03 -2.29612689E-03  7.72295204E-02
  6.02766333E-03  1.00211986E-03  1.14763153E-03  3.90125230E-02  1.48845268E-02
 -1.92815530E-01  3.20096387E-03 -2.02134631E-02 -3.23083832E-03  9.12295371E-02
  8.78762107E-02  3.08131996E-02  1.92777221E-02 -3.95132319E-01  3.72226118E-02
 -5.36835011E-01 -3.97827382E-02  8.15939934E-02 -1.12658795E-02  2.26993277E-03
  3.80821167E-03  1.76710097E-02  5.73064329E-03  2.66563398E-01 -1.98743936E-02
  3.13723746E-02 -4.87226253E-02 -5.21631515E-01  2.21899684E-02  5.09898563E-02
  3.24332468E-02  1.00433870E+00 -7.27739713E-02 -5.43171380E-01  3.87869998E-01
 -3.62520053E-02 -1.54921422E-04 -5.46730666E-02  9.27173521E-02 -4.13696972E-02
 -3.76277362E-02 -1.83434522E-02 -2.56420373E-02  3.65965881E-02 -6.92221970E-02
  4.27976145E-02 -6.51414048E-02 -2.90524818E-02 -5.67764539E-01 -3.49351405E-01
  6.57283819E-01 -7.37510339E-01  1.95636483E-01 -1.10929343E-01 -3.85605953E-01
  3.17854781E-01 -6.73206557E-01  6.75390128E-01 -2.05852099E-01  6.85042600E-02
 -4.51365372E-01 -5.08766608E-03 -9.85375716E-03 -5.58770415E-05  9.49918545E-03
 -3.23670584E-02  6.30217751E-02 -1.61244125E-03  2.68920676E-02 -4.80832599E-02
 -3.33008502E-02  2.14861698E-02 -1.88196526E-02  1.01066235E-01  7.75015104E-03
 -8.15991550E-03  7.26942076E-02 -1.48452001E-02 -8.66308144E-03 -2.79119881E-03
 -5.63527771E-03  1.34528232E-02  2.40323595E-03 -2.66098002E-02  4.43226876E-02
  2.84054042E-02 -1.51902983E-03 -6.02448123E-02 -5.87986980E-02 -3.57317501E-02
  1.70856563E-02  7.00016679E-02  8.35945799E-04 -1.87335714E-02 -6.65312762E-02
 -1.71198398E-02  3.93967186E-03  3.49876198E-03  4.62070045E-03 -2.69479698E-01
  8.67964404E-03 -1.80123231E-02  1.04122499E-01 -5.75711347E-04 -3.34073970E-01
  5.65073609E-03 -1.89145903E+00 -4.06432162E-01 -1.43652690E+00 -3.86895968E-02
  3.49078242E-01 -4.18394957E-02 -3.70593241E-03 -4.84446518E-01 -6.46844524E-02
 -2.03191458E-02 -3.65415405E-02 -1.91599192E-01  3.59620242E-02  2.38223414E-02
  6.69151527E-02 -2.01941272E-01  5.36387962E-02 -5.20018944E-02  1.03425997E+00
 -1.05334079E+00  2.73646270E-01  7.79382308E-02 -1.06541487E-01 -4.73015197E-02
  2.86947105E-02  1.51711636E-01 -1.06010153E-01  5.39519386E-01 -8.55443693E-01
  3.34945061E-01  3.87677736E-01  4.08473553E-01 -3.95281316E-03 -1.35961305E-01
  1.48207390E-01  1.38334150E-02  1.61218351E-01  1.43689739E-02 -4.71768468E-02
 -1.35178560E-01  2.02636534E-01  2.68190708E-03  3.14963921E-01  5.41918033E-02
 -1.33539784E-01 -5.79953325E-02  5.86124818E-02  1.41338713E-01  2.95883544E-01
  6.84611704E-02  7.77312948E-02 -9.32379248E-03 -2.24805102E-02  8.04104444E-02
 -1.49347092E-02 -1.85990315E-03  3.21135538E-01  2.42458972E-01  1.75176494E-02
 -3.53379304E-03 -1.13432827E+00 -7.49470205E-01 -4.38333596E-01  1.07718937E-02
 -8.07114820E-02 -8.72662418E-04  5.53823541E-03  1.21975439E-01  4.11693248E-02
  3.42489522E-02  7.03948378E-02 -4.93957087E-02 -1.50860479E-02 -1.62808636E-03
 -6.40091569E-01 -9.97929561E-02 -4.22395261E-02 -3.34100830E-03  1.90078703E+00
  5.43450974E-01 -3.43405829E-01 -1.20574503E-02  3.46315326E-02 -7.51933465E-04
 -8.25642480E-03  2.99953809E-02 -4.65225884E-02 -1.56011531E-02 -2.79245829E-02
  1.14812847E-01  1.07845447E-01  7.30500946E-03  9.62986530E-02  2.04584898E-02
 -3.41564893E-02 -2.04279535E-03  7.22277148E-01  3.11866919E-01  4.46769466E-02
  8.02125149E-03 -2.26298513E-01  9.92779297E-03 -2.07290466E-03  4.83711507E-01
 -3.62850134E-01  1.79465436E-02  3.18828538E-02  1.03801693E-01  1.34237106E-01
 -1.41793259E-03 -1.06287940E-01  2.57282439E-01 -2.67052228E-01 -1.99020616E-02
 -2.87070421E-01  6.08837812E-01  6.06645464E-01 -1.57117507E-02  2.57549157E-01
  8.50353740E-03  5.99042956E-02 -1.87059055E-02 -2.21572075E-01  5.22130067E-01
 -2.86837321E-01  4.22620200E-01  5.89689136E-01 -1.43523851E-01 -9.92716972E-04
 -6.31699951E-02  6.67639391E-02 -4.56382054E-01 -6.57546791E-02 -1.31362954E-01
 -1.09037373E-02  1.86327844E-01 -3.51121200E-01  1.54972785E-01 -2.19778154E-01
 -3.49378108E-01  1.28578685E-02  2.06816881E-01 -4.20850933E-01  2.02787296E-01
 -2.10697653E-01 -3.53577242E-01 -6.68389385E-03  6.04637017E-03  1.01056225E-02
  9.07702272E-02  3.54058664E-02 -1.25557199E-03  2.13767396E-03  2.53046391E-01
  1.21978794E-01 -1.27890999E-03 -3.43012732E-01  2.85743022E-01 -3.77979245E-02
  4.93873991E-03 -1.02987876E-01  1.73812578E-03 -2.07888941E-04  1.34573095E-01
 -3.16521382E-02  8.61740287E-03  1.75043726E-02  3.71763483E-02  6.40505091E-02
  2.99424791E-03 -1.11676156E-01  1.21530440E-02  1.66736475E-01  6.26574162E-03
 -1.38945083E-01  2.56437743E-03 -2.84702929E-03 -4.31648203E-03 -8.68419283E-03
  2.02704274E-03  6.07684527E-03 -1.18062368E-01  4.96099781E-02  1.62296247E-03
  1.04693332E-02 -1.73760208E-01  1.80097002E-01  2.29565918E-02 -1.29146679E-01
 -1.13154209E-02 -1.60448276E-01 -1.38580926E-02  5.34276593E-02 -7.60412232E-02
 -4.19505498E-01 -8.24385899E-03 -9.19785471E-02  1.15764905E-02 -6.27492946E-03
 -3.99137204E-01 -4.06403723E-01 -2.28014409E-02 -4.14938938E-02  5.86235288E-02
  3.02236030E-01 -2.97506505E-03  2.37681849E-01 -1.35568868E-01 -3.58898626E-01
 -9.66625169E-03 -1.46495192E-01  1.88297245E-01  5.99300451E-01  4.68389485E-03
  1.27870404E-01  2.49730365E-02  1.25437149E-01  5.19902374E-01  4.80486355E-02
 -3.70794181E-01  2.53492634E-01 -3.21073861E-01 -3.43210911E-01  1.44945621E-01
 -5.60054194E-03 -6.06375678E-01  9.56482581E-01 -7.16245482E-01 -2.99587127E-01
  6.48746214E-02 -6.23673010E-02 -4.28755456E-02  4.02388924E-02  1.48466582E-01
 -1.72158023E-01 -4.23034579E-01  1.62519762E-03 -2.62902333E-02 -1.38146779E-02
  2.12544314E-01 -1.10535539E-01 -3.81702191E-01  3.87946575E-02 -1.04898761E-02
 -1.94243342E-02 -1.00400230E-01  3.78729510E-02 -2.34647807E-03  9.95121253E-02
 -1.73582315E-01  2.58171522E-02 -3.20192380E-03 -5.90165381E-02 -1.56900495E-01
 -1.67439332E-01  1.36696989E-02  8.20405545E-02  1.00145309E-03 -1.44526199E-03
 -2.37332666E-03  6.41913233E-02  3.29948910E-02  6.74690348E-02 -4.67145790E-02
  4.31705676E-02  3.77179060E-03 -5.46258312E-01 -1.61919361E-01  1.71698029E-01
  7.09963436E-03  6.69857308E-01  2.24254227E-01 -2.08418412E-01 -2.61565926E-04
  1.18420121E-02 -5.33602369E-03  9.13798430E-03  1.16666513E-02 -5.35713492E-02
 -1.11595411E-02 -2.52623282E-02  2.44563607E-02  1.56299694E-01  4.82243836E-03
  2.07250215E-02  1.80020456E-01 -2.26750479E-01 -2.08522992E-03  4.12956195E-01
  6.55638534E-01 -7.92814826E-01  1.43571272E-02 -3.21735870E-01  7.63033471E-03
 -3.00631306E-03  2.05374473E-01 -2.34673367E-01  3.45329135E-02  5.83147889E-02
 -1.09086012E-01  1.61104346E-01 -6.07585148E-03 -2.75363169E-01  2.90973215E-01
 -1.54354291E-01 -7.88460263E-02 -3.14964457E-01 -2.04802712E-01  2.92377171E-01
 -1.33001521E-02  5.12397439E-01 -8.78287891E-03  9.22555784E-02 -4.64900302E-01
 -1.74886884E-02 -4.40972835E-01  4.91009807E-01 -2.88359515E-01 -8.13071087E-02
  1.44319283E-01  2.26728420E-03  2.14164949E-01 -2.75015697E-01  6.61895708E-03
  2.45173290E-01 -1.91814575E-01 -3.80241152E-03  4.14814078E-01 -6.16389527E-01
  3.04297299E-01  4.24663621E-01 -3.69051493E-02 -3.22333316E-01  4.63501581E-01
 -8.18310589E-01  3.76057431E-01  5.05246456E-01 -2.52183321E-02  2.46284752E-01
 -2.05622045E-02 -4.04203429E-02 -4.34354500E-02  1.24245242E-02  1.93536032E-03
  3.28822316E-01  7.10107359E-02  4.05220756E-02  2.58838538E-03 -8.07650791E-01
 -4.98371880E-01 -2.61759067E-01 -9.32310136E-03  1.32692665E-02 -5.81227653E-04
  2.01406679E-03 -3.95180580E-02  2.45297961E-02  2.43518000E-02  4.96483160E-02
 -7.07479287E-03  3.43069012E-02  4.55762097E-03 -4.22999824E-01 -1.79015757E-02
  1.08859719E-01  7.89855324E-03  9.32668661E-01  7.63724216E-02 -2.37339051E-01
 -1.93528038E-02 -4.49297088E-02  4.23002738E-04  5.43486309E-03 -3.34791245E-02
  1.08565410E-02  1.13431090E-03  1.67256560E-03  1.12796066E-02 -1.40533372E-02
  4.81426814E-01  1.17285235E-02 -1.81904698E-02  1.19549432E-02 -3.48763217E-01
 -2.49135484E-01 -6.89776826E-02  2.86681350E-02  2.10357473E-01  5.84016737E-02
  3.04438829E-01 -8.26467694E-02  4.50519151E-03  1.87294785E-03  1.14846709E-03
  2.06421613E-03 -2.27064647E-02 -2.85279136E-02  1.26084306E-01 -2.18823662E-02
 -5.52239226E-03  6.69886599E-03 -5.27192717E-01  1.85866370E-01 -8.97445052E-02
 -3.76197084E-02  1.33501693E-01 -1.96969928E-01  6.40468419E-01  7.92649051E-01
 -7.34416873E-02 -3.12541738E-02  2.11957145E-02 -4.87951670E-02  1.99321135E-02
 -1.43275366E-02 -6.05097621E-03  2.02674382E-02  7.46923811E-02 -1.24775047E-01
  8.12155517E-02  4.64802341E-02 -4.78128229E-02 -5.34239694E-01 -2.04260422E-01
  5.81282795E-01 -3.03196643E-01 -4.96470600E-01 -1.69072252E-01 -2.25839090E-01
  1.70604907E-01 -5.45457447E-01  2.54177160E-01  4.39894670E-01  2.42165734E-01
 -2.97108144E-01 -4.59638055E-04 -9.29566352E-04  7.87751166E-04  1.80283376E-03
  1.23428976E-02 -1.91556016E-04 -2.89482991E-03  8.62703251E-03  1.57457277E-02
  8.47383782E-02  7.95573991E-03  2.87165733E-02 -3.08089894E-02  4.27481778E-03
  2.35232676E-02 -6.71387489E-02  3.55175377E-03 -3.54770293E-03 -1.25675206E-03
 -2.55158579E-03  2.87100869E-03 -3.55207840E-03  3.44144965E-02  1.78945824E-02
  9.45482396E-03 -1.28868397E-02  4.99139063E-02  1.58945602E-02  7.14710728E-03
 -3.58226189E-03 -8.53593245E-03  1.30299184E-02 -2.00844133E-02  1.38262975E-01
 -1.46739904E-03  3.70767292E-03  8.06285910E-03  1.85640485E-02 -4.45206107E-02
 -6.98956188E-02 -1.96413111E-02 -5.58502480E-02 -8.97711194E-02  9.34166115E-02
  1.69755769E-02 -1.00402473E+00 -6.23398339E-01 -5.22176754E-01 -1.77650612E-02
  9.95942330E-02 -3.22865360E-03 -1.35802361E-02 -1.63816829E-01  4.67955362E-01
  3.18838464E-02  6.22762905E-02 -3.49363244E-01 -1.58842570E-01 -3.08343816E-02
 -4.38313877E-01  1.18274434E-01 -3.69223323E-01  1.16549901E-02  1.08289533E+00
 -5.54685090E-01 -5.25807688E-02 -1.40888640E-02  2.37267602E-01 -2.41616943E-02
  1.65166545E-01  7.96630561E-01  4.33491031E-01  3.39084096E-01 -5.71683944E-01
  1.12298245E-01 -1.19133421E-01 -8.00534324E-02  4.16560471E-03  2.13970211E-01
  2.83227957E-01  1.32611031E-01 -7.08540148E-01 -5.52662543E-01  9.93153234E-03
  4.40821387E-01 -6.34749739E-01  2.05468335E-01 -1.30032573E-02 -2.40832156E-01
 -1.69644855E-01  3.90026258E-01 -6.56486418E-01  1.41927505E-01  6.43520455E-02
 -2.31967319E-01  1.41478170E-01 -1.10116943E-03 -3.84974296E-03  4.99599101E-02
 -4.40413748E-02 -2.06649637E-03  7.64640185E-02 -8.51326763E-02 -9.88577352E-02
 -9.31271885E-04 -2.65712238E-01 -1.34761152E-01  2.21834371E-02 -1.11234228E-03
 -3.69795697E-02  3.43051327E-03  1.15317164E-02 -3.78834947E-02 -3.21940311E-02
 -7.33539131E-03 -1.56127132E-02 -1.46793813E-02 -3.78469488E-02 -8.67538800E-04
  1.05874836E-01  3.30737697E-02 -1.41226481E-01 -3.75029611E-03  2.95320460E-01
  1.34424904E-01  4.69294686E-02  4.64829829E-03 -3.44103483E-02 -7.49068421E-03
 -1.59807846E-03  1.42722012E-01 -9.20800600E-03 -5.30098672E-03 -1.56322058E-02
  1.46725503E-01 -3.31179550E-02  4.13695918E-02  5.90905424E-02  1.02258650E-01
  6.92886483E-02 -3.84917711E-02  1.09382105E+00  2.47353709E-01 -3.56903791E-01
  3.77083078E-02 -1.32330359E-01  1.81553057E-02 -7.85855748E-03  1.94790105E-01
  4.63714306E-01 -2.69910335E-02 -5.28634562E-02  3.64506940E-01  2.13642071E-03
  3.84037665E-02  3.98800362E-01 -1.41764107E-01 -3.32740280E-01 -6.74476753E-02
 -8.98929112E-01  3.90196000E-01  1.27073471E-01  4.20239332E-03  7.15070244E-01
  2.56395058E-02  1.07443247E-01 -4.13261806E-01  4.80112542E-01  2.59218271E-01
 -1.93141788E-01  1.19988960E-01  3.37903100E-02 -1.02812434E-01  2.45193535E-03
 -6.19671833E-01  8.74145570E-01 -3.08413904E-01 -1.21437883E-01  9.23547293E-03
 -2.11752770E-02 -3.80306152E-01  3.03905666E-01 -1.47837844E-01  4.52473763E-01
 -3.02569066E-01  6.69910296E-02 -2.82320446E-01  1.18530959E-01 -4.99537717E-02
  5.46132531E-01 -3.04352292E-01 -2.76542293E-02 -1.80853633E-04 -1.86492926E-03
  6.39614655E-02 -3.57139302E-02  3.03817137E-03  8.19128191E-02 -2.61716809E-02
 -7.46662629E-02  2.31333691E-03 -5.60032576E-01  5.45869854E-02 -8.50988080E-02
 -9.88683464E-03 -1.01257825E-01  9.06270537E-04 -6.01882719E-03 -8.04028864E-02
 -1.03126298E-01 -1.14635618E-02 -2.43051643E-02  2.83312068E-03 -3.76399401E-02
  2.40239331E-03  1.97895728E-01  7.24439791E-02 -1.33080238E-01  1.99210053E-03
 -6.58920177E-02 -2.24510502E-02  1.56835432E-01 -7.52832895E-03 -6.24030986E-02
 -3.84687901E-03  9.96635405E-03  7.01825858E-02  3.00913705E-02 -1.05703732E-03
 -1.85217430E-03  6.90982702E-03  8.40700713E-03 -1.11690536E-01  4.30243726E-03
  1.37931593E-02 -1.75664019E-02  9.37740627E-02 -5.47632772E-02 -1.11068214E-02
 -1.57016395E-01 -4.26295356E-01 -2.29790969E-02 -1.16000270E-01 -6.96651917E-02
  1.56258933E-02 -1.74128192E-02  1.73370879E-03  7.70257046E-03  2.07106129E-02
 -9.85634361E-03 -5.70068303E-02 -1.17535088E-01 -6.17818613E-02  3.92692164E-01
  1.56918860E+00  2.61005948E-02 -4.86596988E-02  2.55311308E-01  8.95990632E-01
  3.69399247E-02  4.49213342E-01 -6.32542864E-02 -4.63173079E-02  1.22855972E-01
  1.13495733E-01 -2.52826356E-01  5.04541377E-02 -1.08433741E-01  3.85540302E-03
  2.93055750E-02  1.25985959E-01 -3.95258115E-01  6.33044587E-02  7.13771932E-02
  1.19581535E-01 -5.12213350E-01  6.38156835E-01 -1.99195662E+00  3.33398506E-01
  3.57971753E-01 -6.47981180E-01  6.25149241E-01 -7.72753705E-01  2.48939352E+00
 -3.93340037E-01 -3.81492047E-01  7.47229718E-01  7.96800560E-01 -3.64494920E-03
 -7.73035590E-03  2.11124642E-03  2.46362273E-03 -4.35763931E-02  5.74153596E-02
 -5.23701903E-02  4.08641681E-03 -1.93716637E-02  1.37881973E-02 -6.10515580E-02
 -1.72813454E-02  8.23657377E-02 -3.03298579E-04  4.28189986E-02  8.37697717E-02
  8.73840302E-03  1.54551732E-03  1.38136756E-03  2.82261280E-03  3.87107516E-03
  5.46642741E-03  9.74117758E-03 -2.55018684E-02  2.80556264E-03  8.88087758E-03
 -8.70269000E-03  9.29514895E-02  7.41260943E-03 -2.21779639E-02  6.83994310E-02
 -1.17151654E-02 -9.87861453E-03  3.15211914E-02 -4.40294372E-03  1.42315418E-02
  7.60529864E-03  8.55590057E-03 -2.03510237E-02 -5.92701956E-02  2.13307328E-02
  2.42258905E-02 -1.31476736E-01  2.27565799E-02 -2.64936580E-02  7.32546283E-01
  1.24861098E-01 -1.93479525E-01 -3.95348975E-02  1.93836327E-01 -9.30192097E-03
 -1.10426128E-02 -3.31159846E-02  1.52799950E-01 -1.78649139E-02 -4.31301344E-02
  1.56223167E-03 -1.55034448E-01  5.52550624E-02  3.99316655E-01  5.61774457E-02
 -4.22651982E-01  2.41383314E-01 -3.99192778E-01  2.78567769E-01 -7.25719270E-02
  1.84656225E-01  1.89372131E-01  1.06059214E-01 -1.00095054E-02  1.91782021E-01
 -1.41570994E-01 -1.06834603E+00  2.72478706E+00 -5.84151337E-01  1.19723997E+00
  4.98608767E-03  8.83141755E-03 -1.41317026E-01  6.35017777E-01 -1.08165014E-01
 -2.11675477E-01 -3.62218542E-01 -3.67608151E-02  1.75737530E-01 -7.81572097E-01
  6.86673256E-02  1.74207211E-01 -2.29415433E-01  4.68856241E-01  2.00497501E-02
 -1.34668600E-01  3.54036838E-02  4.97741599E-02 -6.42599540E-02 -1.79573500E-01
  2.36520882E-02  5.06857329E-02  1.37301166E-02 -2.68657522E-03 -3.47482179E-03
 -2.83348094E-01  5.45691636E-01  3.24231282E-03  2.96657110E-04 -1.42128143E+00
  6.85244237E-01 -2.61340189E-01  5.29624061E-03 -5.88038691E-02  6.95916073E-03
  1.02512476E-03 -1.16919206E-01 -1.71682157E-02 -1.05874734E-02 -2.08363319E-02
 -2.57882667E-03 -5.64923025E-02  1.14378340E-03  1.58056372E-01  3.14868081E-02
 -8.92832360E-02 -4.75407562E-04 -9.01937281E-02 -5.74739316E-02  1.46757391E-01
  6.11322463E-03  3.96561375E-02  2.11189301E-03  7.31015739E-03  2.56278890E-02
 -7.36804209E-02  1.42640764E-03  2.42356895E-03  4.54598855E-02 -6.18622580E-03
  1.39597071E-01 -5.36518544E-02 -5.68486265E-02  2.08026511E-02 -1.59992407E-01
  5.49955097E-01  5.12169542E-01  4.21530300E-01  2.57480754E-02 -1.69637520E-02
 -2.49254231E-02  6.07842320E-03  4.78667287E-02 -1.17104367E-01  1.00176290E-02
  1.67016903E-02  3.80240189E-03  2.03541333E-02  2.08376358E-01 -6.26844265E-02
  8.57709462E-02 -1.16624942E+00  3.00014750E-01 -5.01431905E-01  1.17353266E-01
 -1.06041103E+00  3.36908682E-01  5.13104440E-02  1.60518180E-01 -2.23980577E-01
  5.11908756E-02 -5.05542657E-01  2.77868565E-01 -9.71050951E-01  1.77358808E-01
 -4.16053093E-01  9.08933054E-02  3.27452916E-03 -8.06007218E-01  2.33802522E+00
 -2.58678204E-01 -1.98712961E-01 -9.92390211E-01  7.81292269E-02  3.86518779E-01
 -1.46633256E+00  6.78813648E-02  3.04892503E-01  1.54377265E-01  8.41070573E-01
  3.40889343E-01 -7.05323726E-01  2.05856812E-01  7.33382765E-03  3.26367408E-01
 -3.74222532E-01 -1.78155152E-02 -3.61422460E-02  2.71461002E-02 -1.27259638E-03
  8.54952789E-03  2.43143766E-01 -9.60510088E-02  2.86800459E-02  5.88321173E-03
  4.16524750E-01 -6.69701764E-01  4.07514341E-02 -1.84103741E-02  4.38855137E-02
 -5.06294529E-03 -4.35282022E-02  2.76235896E-02  2.56100864E-02 -2.13350456E-04
  1.51342307E-04  4.25352260E-02  2.18840399E-02  4.10210826E-03  6.45793907E-03
  5.16114318E-03  4.82825482E-02  7.98155976E-03 -2.07564527E-01 -1.50065812E-01
 -1.26202627E-02 -1.28074767E-02  4.97995963E-02  7.39475170E-03  1.19403631E-02
 -7.63564864E-02 -1.98305205E-02 -1.06778459E-03 -1.19589296E-04 -6.36261800E-02
  1.69975592E-02  4.99211305E-01 -2.28378988E-02  9.03272762E-02 -3.19819517E-02
 -5.52635059E-01 -1.57757334E-01 -1.34787270E-01 -1.74412305E-01  3.07727294E-01
 -7.09997901E-02 -1.78107833E-02  1.12191574E-02 -3.06998368E-02 -3.83623517E-02
  9.36798078E-04  3.11536024E-03  3.49833753E-04 -1.29295378E-01  7.45670283E-01
 -4.51075247E-02 -2.53627852E-03  4.21418557E-01 -2.36726018E-02  1.68488614E-01
 -3.41539490E-02  1.85757199E-01  5.49141648E-01  2.80815703E-01  2.32285168E-01
 -6.90060470E-01  1.62318657E-01  5.80613302E-02  7.38815499E-03 -3.12164682E-02
 -1.35341477E-02 -3.99091225E-02 -1.76720856E-03 -1.48676240E-02  3.82757800E-01
 -6.65568766E-01  2.35783645E-01 -1.56440155E-03  1.29187301E-01  1.83070556E-01
 -4.29715530E-01 -6.76780577E-02 -5.29597823E-01  3.12823610E-01 -2.66894819E-01
  4.48017626E-01  1.56851861E-01  5.89792262E-01  3.20164975E-01 -3.59856503E-01
  1.02904057E-01  6.80561634E-01  1.34291767E-03  2.35127867E-03 -2.68675700E-02
  1.13715294E-03  2.79024962E-02 -1.77245510E-02 -3.66196683E-02 -6.51667871E-03
  1.78498508E-02 -1.64256084E-02  4.58305546E-02 -3.40428942E-03 -5.83498576E-02
  4.98321065E-03 -2.67384168E-02 -1.47570380E-01  2.71593593E-02  3.01154355E-02
  4.71392201E-03  9.34493080E-03 -1.49235204E-02  9.70230288E-03  2.66375752E-02
 -8.14359107E-02 -1.93404714E-02  1.51517333E-02  3.60931939E-02  1.59637589E-01
  7.66970851E-02 -5.28800046E-02 -1.01060071E-01 -3.24203034E-02 -3.20007395E-03
  5.20214810E-02  9.32892367E-03  1.52090790E-02  3.18580289E-03  2.13678599E-03
  1.43951253E-01 -2.59001891E-02  1.45769847E-01  8.56297714E-02 -2.15141940E-01
  7.07516046E-02 -1.65169052E-01 -3.89573327E-01 -2.62736892E-01  2.18888193E-01
  8.07010352E-02  2.00791175E-01 -1.81899065E-02  6.56197602E-04  3.36651249E-02
  2.89807087E-01  6.63760522E-04  1.01698119E-03 -1.59322464E-01  7.64144574E-01
  1.26412374E-01 -6.31382291E-02  4.26623462E-02 -1.36744234E-01  6.44568450E-02
  5.85035834E-01 -1.85848349E-01  6.87169227E-01  1.14460237E-01 -6.65459067E-01
  4.37031260E-02 -2.79953620E-01 -2.67671968E-01  5.86060198E-01 -2.46410652E-02
  3.90536205E-01  1.18103802E-03  2.79403274E-01 -1.17678318E-01 -5.85238182E-03
 -2.93258857E-01 -5.33577090E-01 -4.79872649E-01  1.37264027E-01  7.28712793E-01
 -2.90673041E-02  2.93239223E-01 -1.75789348E-01  1.83721889E-01 -7.45709699E-02
  1.66581385E-01 -1.13978422E-01  3.95731459E-01  1.33086773E-01  3.81473468E-01
 -2.56478596E-01  3.63279143E-01  3.78972419E-01  9.23873045E-03  1.93315203E-02
  7.91105725E-02 -1.52037497E-02  8.03542568E-03 -1.35005955E-01  9.02237899E-02
 -3.28943793E-02  4.01745103E-03 -3.76312062E-02  3.32774711E-01  6.23144036E-02
 -1.18251760E-02 -5.55117791E-02 -1.02582914E-02 -4.73161534E-02 -1.25377008E-01
 -1.34204905E-01 -1.70478271E-02 -3.51803361E-02 -6.77580410E-03 -4.35812907E-02
  4.57121046E-03  3.09071136E-01  6.72058450E-02 -1.08768771E-01  6.29029601E-03
 -4.22055554E-01 -1.10641838E-01  1.77578401E-01 -2.20726645E-02  1.65150002E-03
 -8.63603723E-04  1.17002831E-03  1.24152541E-01 -2.53443649E-02 -3.24092789E-06
 -2.54358922E-04 -2.18550391E-02  1.09162139E-02 -8.73381639E-01  8.94120411E-03
  3.30710765E-02 -1.05686804E-02  1.05020728E+00 -1.54962927E-01 -9.30384393E-02
  1.28065245E-02 -5.20946000E-01  2.01583263E-05  3.45828500E-01  3.29586886E-02
  6.46765720E-03  1.71093761E-02 -2.59627744E-03 -8.16135312E-03  1.11482188E-03
  5.17152392E-02  3.67966663E-01  5.24501242E-02  5.34930335E-02 -4.81704168E-02
 -1.59620538E-01  3.19363802E-01 -2.64363459E-02  1.06856808E-02  2.54992220E-01
  3.25144839E-02  7.04121712E-01 -1.96503876E-01  4.54801723E-03  2.36592285E-02
  1.99687522E-02 -5.54255335E-02  6.86848138E-03 -2.01300867E-02 -8.34080916E-03
  9.07665222E-02  4.06213082E-02 -1.06172696E-01 -1.33619223E-02  1.49743051E-02
  3.54025433E-02 -1.21310494E-02 -2.72504974E-01 -1.26438123E-01 -1.39881953E-01
 -1.13200514E-01 -1.45621359E-01  3.53368875E-01  3.58019547E-01 -1.84598802E-01
  1.56805345E-01  1.21153450E-01  1.65187288E-01  1.99613479E-01  9.28838125E-05
  1.20093370E-04 -1.44463716E-04 -1.53646384E-03 -4.71158778E-02 -3.42301719E-03
 -8.66116123E-03 -2.85679768E-03 -1.61211837E-02  4.55045281E-02 -7.77182409E-03
  1.51375377E-02  7.87028617E-02 -2.04928819E-04  1.47934627E-01  1.96230650E-01
 -1.19152726E-03 -1.13807763E-03 -5.04667704E-04 -1.18821473E-03 -6.01403670E-03
 -1.73671915E-03 -4.32423433E-02  1.03572452E-02  2.58285778E-03 -9.28186707E-03
 -3.32270874E-02  3.22637820E-03  1.82093309E-02  2.45699051E-03  1.21420797E-01
 -1.76307816E-02  3.60421242E-01  5.47883193E-02  2.34645101E-02  3.13367868E-04
  9.04028944E-03  8.26171394E-03 -4.81473931E-01 -5.89039771E-02  5.52906856E-02
  1.14875467E-01  6.11115809E-01 -1.74351040E-03 -7.32128157E-02 -2.17897001E+00
 -1.48461051E+00 -4.17920102E-01  4.23720532E-02  1.91848204E-01 -1.85187761E-02
 -8.26650835E-03  1.22109943E-01  1.17115256E-01 -4.35853431E-02 -1.31431264E-01
  3.67332978E-01  5.03840805E-02 -4.55654943E-02  8.47581707E-01  4.99944239E-01
 -2.04250077E-01  1.01502251E-02  4.93508173E+00 -4.42367312E-01  6.47467443E-02
 -2.34460934E-02  1.14275780E-01 -4.36953578E-02  5.25074924E-02 -1.83228663E-01
  7.67697483E-04  1.18769400E-01 -4.32910432E-01 -7.89278044E-02 -1.31387586E-01
  7.93491352E-03  1.84446778E-03  4.80539102E-01 -1.77346595E+00 -5.82584703E-02
  1.21764406E-01  6.98991578E-01 -5.95176359E-02  5.47102023E-01 -2.08256134E+00
  1.73698166E-02  2.92076110E-01 -2.85230422E-01  7.28464692E-01  4.70988277E-01
 -2.12983091E+00 -3.06787966E-02  3.19097102E-01 -4.53363252E-01 -7.42726148E-01
 -1.55551697E-02 -3.11334807E-02  2.33518771E-02  3.48494211E-02  5.70661800E-03
  2.37113699E-01  1.32191687E-02  8.32198477E-02  2.40548668E-03 -7.04378798E-02
 -2.46555107E-01 -9.38468121E-02 -1.90861995E-02  1.00857872E-01 -4.62593613E-03
  2.78000723E-03  4.56834965E-02  1.04776510E-01 -7.90035069E-03 -1.70566546E-02
 -9.77087241E-03 -2.56886117E-02  5.21459271E-03  1.18432943E-01  6.32540553E-02
 -1.41913684E-01  5.49351707E-04  3.27822017E-01  2.77289856E-01  2.35218364E-02
 -1.83644024E-02 -2.34340632E-01 -1.12976070E-02  1.92701831E-03  1.19891248E-02
  1.62220287E-01 -1.35008639E-04 -1.04600953E-04 -2.23884593E-03 -2.89719369E-02
  3.54093024E-01 -1.01245749E-03 -2.49190047E-03  4.39764589E-02 -4.74672600E-01
  2.27668040E-03 -1.92263929E-03 -1.51794216E-02  1.83027704E-01 -9.01360467E-03
 -1.96917388E-01  4.65287076E-02  1.62725565E-04 -5.77083112E-03  3.72659639E-04
  5.96094640E-04  1.03568193E-02 -1.37710711E-02 -7.61057495E-02 -2.60719195E-03
 -9.87022731E-03  2.12234176E-02 -9.44880401E-02 -3.68222477E-03 -3.09787607E-03
 -3.34368435E-03 -1.42625049E-01 -2.33158458E-02 -3.83614583E-01  7.98384377E-02
 -1.12091873E-02  5.33007665E-03  4.11950135E-03 -8.78356662E-03  3.37495978E-03
  4.99220548E-04 -4.78847133E-03 -1.34210112E-01 -6.51365403E-03 -2.54923661E-02
  1.21716729E-02 -1.49874555E-03  2.46432309E-02  5.17167711E-02  1.06971901E-01
  1.58727732E-01  2.39419173E-02  3.51469113E-02  1.00329436E-01 -1.73942775E-01
 -1.04585621E-01 -1.19987040E-01 -3.49163958E-02 -2.92175814E-02 -1.28297145E-01
 -1.19386110E-01 -2.72462842E-04 -5.74937658E-04  2.59866743E-03 -2.10146872E-03
 -8.12286037E-03  3.28589427E-03  1.86372718E-03  5.09739222E-03 -3.08709674E-03
  2.67314857E-03 -1.96286917E-03  8.70723153E-03  7.29400380E-02  4.20652588E-03
 -1.90498166E-01  3.31939802E-01 -2.80200604E-03 -3.52259819E-03  5.15484331E-04
  1.12806273E-03  4.22213568E-04 -2.92928173E-04  1.50605185E-02 -8.53316136E-03
 -5.91104351E-03  7.93210140E-03  2.71983571E-03 -6.60712543E-03 -2.16148426E-03
  5.82937986E-03 -4.29275926E-02  5.12046351E-02  6.54970708E-01  5.52707627E-01
  4.85490622E-03 -3.04750564E-02  2.16296006E-03  4.62715792E-03 -1.82091053E-01
 -2.32934011E-01 -1.90773493E-02  1.45418482E-03  1.55764657E-01  3.93661094E-01
  2.66630335E-02 -1.02280934E+00 -6.92583497E-01 -3.30329191E-01 -8.36152507E-03
 -1.34763931E-01  8.46237532E-03 -1.75870061E-03  3.97986254E-02 -2.38627837E-03
  4.47430806E-03 -2.61752300E-03  3.14641350E-01 -1.29300224E-02  1.85879792E-02
 -6.35177940E-02 -1.78374125E-01  1.25099752E-01 -2.77383401E-02  1.78767937E+00
 -3.37951182E-01  2.31546281E-01  1.87764285E-02  1.80903057E-02  1.52768828E-02
 -6.68411070E-03 -2.76559538E-02  1.40285906E-01  1.24180521E-01 -3.38324322E-01
  4.57925892E-02 -7.48480619E-02 -1.21218237E-01  9.34377787E-03  2.13309851E-01
 -7.52261143E-01  2.65158353E-02  7.21724843E-02  2.19244139E-01 -1.88897695E-02
  1.58503026E-01 -4.08277308E-01 -1.63048357E-02  9.68106945E-02 -9.74020896E-02
  2.88298294E-02  1.75368263E-01 -3.97563138E-01  6.56547586E-03  1.09755506E-01
 -9.11869473E-02  3.20582785E-03 -3.13150702E-03 -6.80007510E-03  3.17417527E-02
 -2.94800774E-02  9.62147968E-04  3.35525270E-02 -1.55012671E-02  4.12358176E-02
  3.17436650E-04  1.22966036E-01 -5.18047346E-02  1.53399517E-01 -6.73305192E-03
  2.13174032E-02  1.23689787E-02 -2.01094126E-02 -6.01294873E-02 -6.45892374E-02
  3.68104822E-03  7.59457554E-03 -1.71133326E-02 -9.15064540E-03  1.06997453E-03
 -5.86492213E-02 -4.21633755E-02  3.38231338E-02  1.29651777E-03  7.14096239E-02
  1.14527489E-01  7.78465220E-02 -1.20389844E-03  8.01803300E-01 -2.96032784E-02
 -4.58082048E-02 -1.03269637E-01 -4.20659732E-01  1.82076862E-02  2.61238391E-02
  5.49164723E-01  7.80110224E-01  1.74333776E-02 -1.79566031E-01 -5.91849028E-01
 -9.43492448E-01 -2.60876787E-02 -1.07268387E+00  3.14504088E-01  2.34905447E-01
  9.13987929E-03  6.27585271E-02 -2.44253824E-03 -1.94742414E-03 -2.08190478E-01
  1.57476091E-01 -4.98672689E-02 -1.15562059E-01 -2.85748907E-01 -2.44277362E-02
 -4.99683724E-03  7.57118185E-01  5.96618598E-01 -1.19804005E-01 -1.76215562E-02
  1.85074670E+00 -1.57306121E-01 -2.50865446E-02  8.37653408E-03  1.10449833E-01
 -1.80782475E-02  3.56317140E-02  2.37630943E-02 -1.98774145E-01  1.44056421E-01
 -5.10702966E-01  2.21317423E-01 -1.76781052E-01  9.27611974E-02  3.02935635E-03
  2.40099112E-01 -8.49627077E-01 -5.28159055E-02  1.23609141E-01  3.04398056E-01
 -2.15089755E-02  1.29808428E-01 -1.02974248E+00 -8.95306292E-03  1.40963444E-01
 -1.93435161E-01  4.57760309E-01  8.69126648E-02 -1.06638027E+00 -2.56454784E-03
  1.47001499E-01 -3.01691204E-01 -4.56238083E-01  2.17196524E-02  4.25093931E-02
 -3.40383011E-02 -6.99552380E-02  1.94283228E-03 -3.38282041E-01 -1.54102657E-01
 -2.38300013E-01  6.61368396E-04  5.94058584E-01 -2.17113833E-01  2.37918180E-01
 -5.42527197E-03 -3.48103800E-01  6.99604875E-03  8.12538908E-03 -1.65441785E-01
  2.17819094E-01 -4.78692129E-03 -1.04709854E-02  1.41204448E-02 -1.02291429E-02
  3.27182468E-03  5.62389560E-02  8.44153280E-02 -9.19112138E-02 -1.35176148E-03
  4.27425237E-01  1.26409465E-02 -1.74670953E-01 -1.00310296E-02  1.66341989E-01
  3.25500656E-03 -1.51093490E-04 -1.40755404E-01 -2.61103953E-02  2.28988130E-04
  5.00656647E-04 -1.22087424E-02  6.08244160E-03  1.67842730E-01 -4.56382068E-03
  1.66998247E-02 -9.97881332E-03 -2.56623255E-01  4.53717468E-02  1.87948926E-02
  1.55766802E-02  1.99143859E-01 -1.24201782E-03 -1.75940966E-01 -1.38535499E-01
 -1.68122819E-04  1.30509636E-02  1.22582229E-03  3.07055532E-03  7.17060172E-03
 -1.90358971E-02 -8.30393108E-02 -1.68168822E-02 -2.04926732E-02  4.05472062E-02
 -2.55301602E-02 -1.02347386E-01  1.36786056E-02 -1.02483138E-02 -1.86989882E-01
 -2.68642975E-02 -2.60483229E-01  9.80751316E-02 -1.27080122E-02  1.56170938E-02
 -3.77671483E-03  1.77640449E-02 -2.05241239E-03  5.70054840E-03  8.92962537E-03
  4.11773972E-01 -1.65298625E-02  5.67035648E-03  7.63575278E-03 -1.13132263E-03
  1.42678337E-02  2.27228695E-02  6.12614747E-02  1.87465928E-01  4.31631201E-02
  7.56860881E-03  6.39232023E-02 -1.46530375E-01 -7.26093841E-02 -6.87497203E-02
 -4.92131652E-02 -1.80006109E-02 -7.29918015E-02 -7.09263612E-02  4.41508377E-04
  8.83903381E-04 -1.06939401E-03  5.38292780E-04  2.90153331E-04 -6.36070324E-03
  2.67700585E-04 -2.19041198E-03  2.45994914E-02 -2.07785269E-03  1.22490529E-02
 -6.40789902E-03 -2.51615951E-01  1.05965902E-02  8.56819139E-01 -3.80726206E-01
  5.23843081E-03  1.67199422E-02 -5.57358394E-04 -1.19182143E-03  1.51729470E-03
  1.12945388E-03 -7.41800507E-05  9.89141032E-03  4.55960953E-03 -6.36504676E-03
  5.22105595E-03 -8.56374174E-03 -6.75251131E-03 -4.58237931E-03 -3.18558322E-03
 -5.08854869E-03  3.56148314E-01 -3.66858711E-02 -1.38974323E-02  1.68721407E-03
 -2.57952798E-02 -4.36147498E-02  6.82416585E-01 -7.48561911E-01  7.08854959E-03
  2.57128551E-01 -8.49019942E-01  1.05364706E+00 -9.97437567E-03 -2.18146312E-01
  6.58925492E-02 -4.87175362E-01  8.46960225E-03 -2.03373463E-01 -2.48401264E-03
  1.50938184E-02 -1.16242967E-01 -4.13591184E-01 -5.55453265E-02 -1.24480498E-01
 -5.42544835E-01 -1.40555886E-01  1.51082802E-02  8.26958377E-01  1.05855238E+00
  2.06220267E-01 -5.32399342E-02  1.89046359E+00 -1.84701861E-01 -3.65677844E-02
  2.03289067E-02  1.53147749E-01 -1.92407282E-02  2.28686769E-02 -1.74314187E-01
  1.03960400E-02  1.91726516E-02 -2.33584572E-01  9.00069355E-03 -1.17794749E-01
 -6.78461160E-02  1.32797165E-02  9.36774896E-02 -1.04006025E+00  9.16481647E-02
  8.15183620E-02  5.44243052E-01 -3.64118130E-02  9.45908828E-02 -1.01162702E+00
 -9.68811048E-02  1.65511377E-01 -2.29153533E-01  4.45083752E-01  6.16880059E-02
 -1.05001517E+00 -8.97321380E-02  1.83300616E-01 -3.31485947E-01 -4.24240037E-01
 -1.76283940E-02 -3.52164798E-02  1.98239737E-03 -4.98749341E-03  3.39544783E-03
  2.82083751E-01  4.12571196E-02  1.21886712E-01 -1.86802441E-04 -2.42073542E-01
 -3.03927688E-01 -2.59871160E-02 -6.94730993E-03  8.71642222E-02  3.02426444E-02
  1.86594071E-02  8.36815218E-02 -1.76343378E-01  2.97091415E-02  6.27950749E-02
 -1.82923846E-02  3.23882113E-02  3.73331285E-03 -4.98039452E-01 -2.35874467E-01
  3.58723716E-01  7.49856192E-03 -8.86958375E-03 -4.22001886E-02  9.04995248E-02
 -3.89624891E-03 -7.63489093E-02 -9.95186457E-03 -1.34203778E-02  1.63437391E-02
 -1.38712907E-01  3.25101903E-03  6.10528095E-03 -4.83561643E-02  5.50429286E-02
  4.05656416E-01 -4.87457564E-02  6.85459222E-02 -1.01426770E-01 -6.08928271E-01
 -1.86416869E-01 -9.03589727E-02 -2.64455199E-02  1.03061857E-01  1.75166958E-02
  2.50208806E-01  3.16384288E-01  9.52163931E-03 -9.61961571E-02  3.06635653E-03
  5.93923962E-03  5.49609294E-02  5.30084129E-02  1.20063020E-01 -4.50249839E-02
 -7.50483090E-02 -1.80373590E-01 -3.00798545E-01  1.03205512E-01 -4.86900932E-02
 -2.24374884E-02  3.22911781E-02  2.97446179E-02 -7.94537454E-02  6.60869491E-03
  4.98413301E-02 -1.51558136E-01  1.27121470E-02 -1.53851274E-01  1.12492690E-02
 -6.86417429E-02 -5.95156058E-02  7.17791977E-02  4.93712395E-02  1.32872499E-01
 -1.10771826E-02 -8.82160760E-03 -1.20451561E-01  6.55893752E-02 -1.99033984E-03
  1.14506226E-01 -7.79838940E-02 -2.33688099E-02  8.54458146E-02 -3.11957349E-02
 -4.03275146E-02 -1.91044539E-01  9.94497469E-02  2.70617826E-02 -6.60828810E-02
 -9.64043447E-02 -1.63442875E-03 -3.08219381E-03 -7.01880556E-03  6.30441560E-03
  3.52742221E-02  9.58882398E-03 -9.51325338E-03  3.49180160E-03 -3.48913020E-02
  1.14203682E-01 -1.00245711E-01  5.79521441E-02  1.85632589E-01 -9.00765486E-02
  4.09209256E-01  8.28603156E-01 -4.30284813E-02 -1.26442255E-01  1.58784285E-03
  3.27498896E-03 -3.25017529E-03 -2.75287249E-03 -4.31622780E-04 -3.80476316E-02
 -6.50908749E-03  2.23207002E-03 -3.11031331E-03  1.10344031E-01  8.47833377E-02
 -2.25828689E-02  3.81120819E-02 -3.22273834E-02 -1.37008967E-01 -2.98395061E-01
  1.11797711E-01 -5.23967557E-02  1.35973909E-02  2.48659127E-02 -1.22547082E-01
  1.48825081E-01 -8.75873970E-02 -1.90492690E-01  2.00881217E-01 -2.88430052E-01
  1.31968070E-01 -1.17633577E+00 -5.21657170E-01 -2.08773515E-01 -1.50574415E-02
  9.14867407E-02 -8.52797668E-02 -6.45892683E-02 -2.57902063E-02 -4.80986101E-01
  5.94996688E-04 -2.71765136E-03  1.75877078E-01  1.04429443E-01 -5.17539562E-02
 -3.73303363E-02 -1.74981114E-01 -5.05352422E-01  9.77407016E-02  1.24281328E+00
 -3.22860959E-01 -1.18573483E-01 -2.10465488E-02  1.73981273E-01 -4.48717825E-03
  5.69187997E-02  1.99231095E-01 -5.89465437E-01  6.73463086E-02 -8.03292183E-01
  5.74802573E-02 -3.50616960E-01 -2.86330384E-01 -2.67646417E-03  2.63319976E-01
  2.00785649E-01 -2.15011084E-02  4.75540396E-03 -3.71764390E-01  1.99498447E-02
 -1.42471634E-02 -4.57227567E-01  5.10462921E-02  6.12587180E-02  5.53479544E-03
  2.38456704E-01 -5.47715747E-02 -4.42603808E-01 -6.66929554E-03  4.20385100E-02
 -4.69710614E-02 -2.56521865E-01 -8.71704743E-03 -1.64758583E-02 -3.88428327E-02
  3.04439848E-02 -8.70605524E-03  5.39907385E-02 -4.18487894E-02  2.12908462E-02
  9.37714298E-03  5.87371387E-01 -5.27151858E-01  3.05611500E-01 -5.29523990E-02
 -4.33577381E-01 -6.02925011E-02 -1.96376617E-01 -1.95309225E-01 -5.93510880E-01
  1.09831101E-02  2.28969707E-02 -1.26739273E-02 -1.05846371E-02  1.83328976E-03
 -2.37476243E-01 -6.22195996E-02  5.75766493E-02  2.13404094E-03  5.26449890E-01
  3.78294674E-01 -8.76179086E-02 -2.57108608E-02 -1.38056693E-01  9.72505602E-03
  9.81020800E-02  4.61772789E-01 -2.23294029E-01 -1.82949455E-03 -3.11413002E-03
  1.42313897E-03  2.89793993E-03 -2.59709864E-01  2.41461067E-02 -4.99247007E-03
 -8.19876926E-03  4.75769297E-01  8.40739178E-02  3.50994885E-03  1.61407005E-02
 -8.45617881E-04  3.39997333E-03 -2.59862311E-01  4.83261462E-01  1.00754642E-02
  3.41711957E-02 -4.16779050E-04 -1.35363346E-03 -1.41307675E-02  4.33443687E-02
  1.88920600E-01  2.21280949E-02  3.33312732E-02 -1.10566540E-01 -5.38001349E-01
 -4.04780709E-02  1.74404658E-02  8.41258932E-03 -3.48837981E-02 -1.29024026E-02
 -2.09371956E-01  5.37718103E-02 -1.64924303E-02 -1.26328136E-02  1.61035951E-04
  7.13894804E-02 -7.50571698E-03  3.66128410E-02  1.11006519E-02  1.12621637E-01
 -5.98702552E-03  2.73379265E-02 -1.90513944E-02 -1.00134435E-02  9.51449694E-04
  1.06611726E-01  6.37699948E-02  2.66462743E-01 -4.18371630E-02 -6.35857260E-02
  1.29849469E-01 -1.39756425E-01 -7.04225870E-02 -3.01152675E-01  5.79440139E-02
  7.39936861E-02 -1.49268189E-01 -1.42606589E-01  3.68690912E-04  5.88919894E-04
  8.99037923E-03 -4.31155340E-03  2.34341705E-02  6.00493959E-03  3.67568062E-03
  1.25822867E-03 -6.52008161E-03 -8.36046881E-02  4.35589736E-02 -3.52217237E-02
 -1.10894004E-02  3.84206921E-02  3.17170280E-01  7.29785064E-02  5.17763718E-04
  2.05669158E-02 -7.83576998E-04 -1.66127040E-03 -2.42199279E-03  2.08802628E-03
 -5.54496119E-02  1.78695253E-02  5.10437890E-03 -5.47087664E-03  2.64256166E-02
 -4.75062114E-02 -1.86412613E-02  1.68460534E-02 -2.99461172E-01  3.66844962E-02
 -5.82432667E-01  8.10935597E-01 -1.96107368E-03  2.56219949E-02  6.41368106E-02
  1.08182599E-01 -7.41806457E-02 -3.59437157E-01 -9.88611022E-03 -8.24702781E-01
  2.54410952E-01  5.48224094E-01  1.10878072E-02 -1.39102937E+00  3.72911201E-01
  2.18023887E-01 -7.58683119E-03  3.83835561E-01  1.70887614E-02  2.02612266E-02
 -4.14327511E-01 -1.00607295E-02  1.02586359E-02  2.57119484E-02  3.41327417E-01
 -1.65311198E-01  3.08569828E-02 -2.25069711E-01 -9.51666278E-01  6.00605283E-01
 -6.57627489E-02 -4.34096462E-01 -5.71799190E-02 -6.26968488E-02 -1.11695300E-02
 -3.98188331E-01 -1.13095651E-03 -5.35095770E-02  2.06779567E-01  3.24780940E-01
  4.55769743E-02 -5.01815066E-01  1.93636293E-01 -1.70195830E-01 -9.69023519E-02
 -2.01703107E-04 -7.24274022E-02 -6.07333114E-02  1.36296365E-01  6.83554552E-02
  8.66716662E-02  2.94066248E-03  1.26786232E-01  5.44976925E-01  2.46623638E-03
 -1.18747939E-01  1.17762099E-01 -3.74836575E-01  1.67199682E-01  5.20248417E-01
  3.17828379E-03 -1.09891418E-01  1.81802154E-01  3.59262626E-01  8.09782330E-03
  1.88076852E-02 -3.78066932E-02  1.24475499E-01  2.77509242E-03 -3.36108022E-01
 -2.13495460E-02 -8.72650283E-02 -2.62637090E-03  1.58881500E+00 -3.09484771E-02
  7.99156152E-01  7.69349659E-03 -4.48050590E-01  9.82889259E-03  1.63992523E-02
 -2.95781269E-01 -2.84501004E-03  1.01511382E-02  2.27834469E-02  2.31941418E-02
 -1.32345831E-01 -6.35812433E-03 -2.87672753E-01 -6.00612895E-02  1.39280077E-01
  4.22722830E-03  8.68591044E-01  5.37708340E-02 -5.63390804E-01 -1.10915823E-02
 -3.47686899E-01 -1.57248437E-02  3.23375219E-02 -7.22336965E-01 -2.02788855E-01
  4.42650056E-02  7.53636346E-02  3.34320526E-01 -2.85182544E-02  4.28642770E-03
 -5.36215586E-01 -5.22970080E-01 -2.40479356E-01 -1.44800663E-02 -4.40213882E-01
 -1.58026950E-01 -1.62401085E-01  1.02594181E-02  2.04087225E-01 -8.50037424E-03
 -1.22987262E-02  3.03239804E-01  1.11195189E-01  5.94018147E-03  1.58901508E-02
  3.56651621E-01  3.06938806E-01 -6.65889373E-02 -1.22952095E-01 -7.47347719E-01
 -7.98873148E-01  1.59729169E-01 -1.15033809E-02  4.92519921E-02  2.95082079E-01
 -5.21386814E-02  1.24417696E-01  3.72123389E-02  1.70306411E-02  3.27063096E-01
 -2.48989162E-01  1.59006600E-01  7.77960940E-01  7.08168556E-02  4.69788774E-01
  1.21870175E-01  5.20768952E-04  2.53532838E-01  4.43913511E-01 -1.99212475E-01
 -1.00706581E-01 -4.70368699E-01  2.62777768E-02 -1.17741868E-01  1.05693125E-01
  4.72372594E-02  5.63163320E-02  1.84176399E-02  3.34823536E-02 -6.89268670E-02
  1.44558185E-01  5.61793121E-03  3.85016838E-02  4.60411348E-02  1.08173998E-03
  2.10581322E-03  3.20160331E-03  1.96662649E-01  2.46810281E-02 -1.66059551E-03
  5.81152617E-02 -4.95645585E-02  1.81221498E-03  1.38715592E-03 -7.28421252E-01
  8.78356637E-01 -1.47626548E-01 -3.23903773E-03  2.76518091E-01 -3.16187449E-03
 -8.82718566E-03 -2.79226081E-01  5.58661772E-01  3.08491491E-03  7.53789003E-03
  9.82677118E-02 -6.81353983E-02 -1.65180644E-03 -1.43599656E-01 -5.37474310E-02
  2.67086470E-02  4.26622915E-04  6.41745734E-01  4.52600512E-01 -2.41776490E-01
 -6.85377851E-03 -3.15289602E-01 -9.72692697E-03  9.02784869E-03  2.70094056E-01
 -6.21510281E-01  1.96143177E-02  2.33533095E-02  1.11624740E-01 -2.86755988E-01
 -5.31610813E-03 -1.06311582E-01 -2.13715181E-01  8.29968403E-01  1.29795506E-02
 -8.52809106E-01  6.77651786E-02  3.26698156E-01  2.45440724E-03  1.90852268E-01
 -7.84521371E-03  1.77275399E-02  4.09099262E-01 -2.14139291E-01  8.58767852E-03
  1.96041273E-02  1.71603520E-01 -2.40722008E-01  4.95181876E-03 -2.39572655E-01
 -3.04042600E-01  8.02276817E-01  2.45071111E-03  4.10528227E-01 -1.40444208E-01
 -1.56279484E-01 -6.60265752E-03 -3.48818718E-01  3.54014644E-03 -7.94437153E-02
 -1.49333752E-01  3.48871420E-01 -2.23222814E-01 -1.16962533E+00  1.10541774E-01
 -8.17152486E-01  1.12239284E-01  4.13152349E-04 -1.98510815E-01 -3.75131794E-01
  7.35561105E-02  1.47670213E-01  3.41961289E-01 -2.68203361E-02  1.36810746E-01
  1.79806911E-01 -3.57481960E-02 -7.00886824E-02  6.77829699E-02 -2.20434137E-01
  1.76638545E-01  2.36409158E-01 -5.80631643E-02 -9.33111407E-02  1.38554639E-01
  2.44222524E-01 -1.52962796E-02 -2.55129532E-02 -1.51791621E-01  1.43093204E-01
  1.62986370E-03 -6.75548835E-02 -4.30741980E-02  2.08550460E-02 -1.56117187E-03
  2.02009306E+00 -5.50611250E-01  5.89261483E-01 -1.52325691E-03 -6.92045956E-01
  7.19744377E-03  2.63585124E-03  6.23535891E-01  4.63705237E-01 -6.01126985E-04
 -4.49908644E-04  9.29062226E-02  6.08458393E-02 -5.63369806E-03  3.91488094E-02
 -9.72806480E-02  1.24812459E-02  4.86345475E-03 -3.17334233E-01 -3.72955450E-02
  2.63425477E-01 -5.77775783E-03  5.99015178E-02 -1.76673297E-02  1.13314087E-02
  3.79554559E-01 -4.92985788E-02 -4.71833257E-03 -8.48228902E-03 -7.82663949E-02
 -2.69536178E-01  9.77610812E-02  4.35166761E-02  2.13181876E-01  6.89005698E-01
 -1.58603571E-01  1.66357206E-01  2.58335733E-01  2.07913772E-01  2.99151865E-02
 -7.28116537E-02 -1.54827124E-01  1.26548373E-01  1.15952526E-02  5.30251806E-03
 -1.09187484E-04 -1.85999761E-03 -1.20611488E-01  5.74311754E-01 -9.24737106E-01
  7.08668147E-02  3.01995931E-01 -1.57566034E+00  2.87027586E+00 -4.29084630E-01
  8.29872545E-02 -1.37746173E-02 -8.46922813E-02  7.20783460E-01  8.08615534E-01
 -8.13583882E-01  3.40364618E-01 -2.84014654E-01 -4.69309582E-02 -3.00553909E-01
  4.33860375E-02 -1.82332990E-01 -4.46304024E-03  1.46494572E-02  3.15773347E-01
  9.14090698E-01 -1.73366336E-01 -3.18207380E-01 -7.10339207E-01 -1.26339369E-01
 -7.93688321E-01 -1.59569410E+00  3.84982456E-01  6.06647155E-01 -4.90855915E-01
  1.22930115E+00  3.46662711E-01  7.63956423E-01 -1.50690812E-01 -2.87881261E-01
  4.82424676E-01  3.66309342E-01 -8.80461757E-04 -4.42352859E-04 -4.01410936E-02
  4.76856489E-02  4.09845132E-02 -9.44252626E-02  6.46227692E-03 -2.26452385E-03
 -3.10360165E-02  7.55279529E-01 -1.15536091E-01  3.24548308E-01  1.88756803E-02
 -1.90289688E-01  6.94915845E-02  5.77682796E-02  6.49885875E-02  9.03705667E-02
  1.39183716E-03  2.50764372E-03 -6.21981448E-02  3.17093540E-02 -3.05076279E-02
  1.63650262E-02  1.55484504E-02  2.91977900E-02  2.11082337E-02 -3.34610301E-01
 -2.43499076E-01  1.01919649E-01 -5.00622905E-02  9.17223211E-02 -4.47038131E-02
  1.01688773E-01 -1.31075202E-01  1.55179769E-01  2.91747136E-03  8.42964822E-03
  1.14656248E-02  4.40004493E-01  6.21357569E-02 -6.43743678E-02  2.81035671E-02
 -1.21265039E+00 -1.04058920E-01 -2.67232586E-01 -3.42035606E-01 -4.05033593E-01
  1.28401397E-02  4.83881965E-02 -1.00773567E-01  1.07577727E-01  3.46442934E-02
  1.51577748E-01  1.90708153E-03  5.85904567E-03  3.54527845E-02 -8.22811519E-01
 -6.11013316E-01 -1.57242389E-01 -1.14489594E-01  2.40290133E+00  1.97034015E+00
  6.72358021E-01 -1.30622454E-01  1.97308390E-02 -5.83230313E-02 -5.40510168E-01
  5.76303248E-01 -8.38603875E-01 -3.59975941E-01  5.29917538E-01  4.30676080E-02
  2.77119866E-01 -8.64431714E-02  1.59463379E-01 -2.76034039E-04  1.03467736E-02
 -4.00912038E-01 -1.21395105E+00  2.24063703E-01  3.72009219E-01  9.08803216E-01
 -2.00131121E-01 -1.55984847E-01 -5.12023152E-01  7.90704790E-02  1.56489958E-01
 -3.19191484E-01  2.30310546E-01  7.66137045E-01  1.35959920E+00 -3.54435088E-01
 -5.50009272E-01  5.72794593E-01  9.90695054E-01  1.33214142E-03  5.32387796E-04
  6.32361111E-03 -1.18481325E-01  3.44984760E-02  1.38782172E-01  1.45606702E-03
  2.13374910E-02 -2.71214223E-02 -1.07744369E+00 -2.10336400E-02 -5.30302895E-01
  2.35826004E-02  2.56029641E-01  5.25893512E-02  5.34937406E-02  3.32577844E-02
 -1.99570459E-01 -4.01005177E-03 -7.91721341E-03  1.01178001E-01 -8.71193164E-02
 -3.25420251E-02 -1.06889609E-02  9.76025693E-03 -7.15118841E-02  2.00809176E-02
  7.67046221E-01  4.15357860E-01 -2.94980290E-01 -5.59477231E-02 -1.48764199E-01
 -6.02116134E-02  9.15147914E-02  8.50303314E-02 -3.03193380E-01 -7.28951198E-03
 -1.97438354E-02  9.81245895E-02 -3.96633884E-01  5.39283946E-03  1.76051068E-01
 -5.02687992E-01  1.50283188E+00  1.91813591E-03  4.05143272E-01  1.06498017E-01
  4.92533823E-01  6.51617273E-03 -2.72521510E-02 -2.44016301E-02  3.81097239E-02
 -2.75967864E-02 -9.09495969E-01  2.88619894E-04  4.51741529E-03  9.90169092E-02
 -3.74787643E-01 -9.95722570E-02 -4.08832933E-02 -3.50370493E-01  1.04610939E+00
  3.36999952E-01 -4.26961947E-01  1.69751946E-01 -6.28552903E-04 -1.63130694E-02
 -3.14506993E-01  1.01339993E-01 -1.98694995E-01 -5.51790055E-02  9.19075811E-02
  1.35560177E-01  4.46104547E-01  1.49747320E-01  3.90680988E-01 -4.25885290E-02
  3.12795497E-03 -1.70457240E-01 -3.50721512E-01  5.85029850E-02  1.95493203E-01
  2.90681287E-01 -4.12326070E-02  1.29123703E-02  2.41885652E-01 -3.20654708E-02
 -6.58947835E-02 -3.41894014E-02 -1.24351842E-01  2.02952512E-01  5.99523856E-01
 -1.13806655E-01 -2.11302005E-01  1.65288795E-01  3.46503576E-01 -6.35291426E-04
  2.55124892E-04  1.95208454E-01  3.10262337E-01  6.78653550E-03 -9.15092398E-02
 -1.17086298E-02 -9.25840767E-02 -5.79092070E-03  5.56976570E-01  7.37071046E-01
  6.93164330E-01  5.90647222E-03 -7.98427967E-02  1.17481043E-02  1.11874442E-02
 -7.67071961E-01  2.88922558E-01  1.37972220E-02  2.75846283E-02 -1.51487846E-01
  2.88486381E-01 -1.77056664E-03 -1.02044306E-01 -9.25835545E-02  1.07136735E-01
  7.16189455E-03 -1.41068147E+00 -4.82605335E-01  7.05262000E-01  5.85376088E-03
  2.61805647E-01 -2.37222587E-03 -1.14862685E-03  3.29787550E-01  5.43614446E-01
 -2.15789761E-02 -3.03192471E-02 -8.56256555E-01 -6.70584368E-03 -1.30751511E-03
  1.38823300E-02  2.69924765E+00 -7.71111231E-02 -4.01943740E-03 -2.21373112E-01
  4.21070382E-01 -5.73862572E-02 -4.59112776E-03 -1.62221326E-01  1.49167837E-02
 -1.69314129E-02  1.21485781E+00  6.50912147E-02  1.42412985E-02  8.98405419E-03
 -9.29593865E-01 -6.31847951E-02  4.56469274E-02  1.97795623E-01  2.75267995E+00
  1.38330989E-01 -1.74584078E-01 -7.76438836E-01  1.70569494E-01  2.37467980E-02
 -1.14213365E-03  5.21162218E-01 -5.04712192E-02  6.47925654E-02 -1.06772020E+00
  1.44093567E-02  6.78013227E-02 -2.29484065E-01  1.30826600E-01 -3.23611445E-02
 -3.70471915E-02 -1.48374180E-03 -2.20293270E-01 -4.49777470E-01  1.01638215E-01
 -1.53123522E-02  4.87560228E-01 -3.16362201E-02 -1.72753495E-01 -2.65260438E-01
  8.63835404E-02 -5.62977618E-02 -1.30154497E-01  3.07418685E-01 -2.55309562E-01
 -4.40342969E-01  1.25252297E-01  1.31381030E-02 -2.52787563E-01 -3.81158429E-01
 -7.63013666E-03 -1.34737697E-02  6.34611018E-02  2.65157044E-01 -6.02242165E-03
 -6.78214325E-03  1.47981126E-02 -7.69550491E-02  5.13226482E-03  8.44415543E-01
  9.12226659E-02  6.39517771E-01 -2.98370436E-03 -1.85229954E-01 -5.44182628E-03
 -4.96662138E-03 -2.79293398E-01  2.46829022E-01 -1.00077430E-02 -2.07151844E-02
  1.71219765E-01 -1.35316632E-01  1.23999531E-03  9.77232010E-02  4.68385197E-02
 -1.08489168E-01 -5.29937896E-03  1.01020809E+00  3.29411086E-01 -5.15943153E-01
 -6.72440791E-03 -9.42612497E-02 -5.97788500E-03 -1.65569417E-03 -1.12458746E-02
 -3.76746024E-01  2.72410886E-04  3.69841682E-04  2.29437855E-03 -7.01548983E-04
  5.76813045E-02 -2.02676934E-03 -5.13196576E-03 -1.67729958E-04 -9.08755357E-02
  1.94908905E-03  3.75023139E-04  3.32170748E-02  2.44578420E-01  2.33791026E-03
  1.86755129E-03  1.35624866E-01 -2.55202485E-03  2.02382348E-03 -1.01610065E-04
 -2.27658817E-04  1.86020476E-03 -7.43654934E-03 -4.98033623E-02 -5.08801251E-06
 -4.10854433E-03  1.91497250E-02  1.33291590E-01  2.24968462E-02  4.29215206E-03
 -4.62922586E-02 -2.10168314E-01  3.02495262E-03  2.48865546E-02 -8.08084043E-02
  2.78062352E-03  6.55605079E-03  4.27340194E-04 -6.95609405E-03  1.65419574E-03
 -2.72509323E-03  2.77803044E-04 -2.38281764E-02 -6.45505414E-03  3.69821856E-03
  1.14880014E-02 -4.23780524E-04  6.06264810E-03  3.02434972E-02 -5.00192646E-02
  1.05215579E-02  7.78343672E-02  2.02422961E-02  4.60795544E-03  3.59209486E-02
  6.73434206E-02 -4.03744795E-02 -9.57230794E-02 -1.62753127E-02  9.48590329E-03
  2.89258203E-02  1.09173454E-04  2.03449103E-04  2.61864208E-04 -2.49647692E-03
 -1.21154417E+00 -2.91186929E-03 -8.32030230E-04  2.51089336E-03  1.38625926E+00
  2.02499884E-02 -3.26573095E-03  8.52334391E-04 -6.02735992E-01 -2.54652618E-04
  2.15373483E-02  2.07920671E-02  2.03838383E-03 -2.50198712E-04 -1.97258905E-04
 -3.53242116E-04 -4.62509060E-03 -2.79601254E-03  3.55250469E-01  4.03360711E-03
  5.00042067E-03  3.86421066E-03 -3.93233158E-01 -2.28209663E-02 -8.22829692E-03
 -8.08187256E-04  7.15661830E-02  4.81811871E-04 -4.75980310E-02  2.42347010E-02
 -2.77885206E-03  1.46523664E-03 -1.75841090E-04 -2.85181386E-04  4.22847781E-04
 -3.38430392E-04  1.03941345E-01  4.10948704E-04  2.50268302E-03  1.39683847E-03
 -2.11687611E-01 -7.93890382E-03  5.66484760E-03 -1.33681196E-02  4.66003984E-01
 -6.26158911E-03  8.32911393E-02 -9.44443969E-02  4.56843590E-03 -5.34070769E-03
 -4.88328371E-04 -9.81017644E-04 -4.01871501E-03  3.91816167E-03  2.24763064E-02
  6.57173864E-03  2.08794533E-02 -1.67548419E-02 -7.92648467E-02  4.38726662E-02
 -2.88381727E-03  1.13760091E-02 -1.95104594E-01  5.39538177E-03 -8.74345328E-03
  4.84754883E-02 -6.93599091E-03 -9.27677128E-03  1.69084875E-03 -1.03131833E-02
  1.11542168E-03 -3.35084926E-03 -7.02611117E-04  8.52163116E-03  8.69107330E-03
 -2.43639524E-02 -7.97743214E-03  1.11138614E-03  4.40807659E-03  2.28778135E-02
  1.74921706E-02  5.71907321E-02  8.74901288E-03  1.04990286E-02  1.00326091E-02
 -1.82657085E-02 -1.87499886E-02 -1.04485978E-01 -2.52781487E-03  3.67901146E-03
 -3.13201072E-02 -2.86002938E-02 -1.67057015E-04 -3.04596482E-04  1.26799349E-03
 -8.30351606E-04 -3.60720061E-01  2.47140219E-03 -1.49929435E-03  1.61896490E-03
  4.35209002E-01 -6.72941222E-04 -9.34187727E-03  9.11758932E-04 -3.07671000E-01
 -2.85409052E-04 -2.36656674E-02 -1.15092213E-02 -6.28636789E-04 -4.76789704E-04
  1.13876849E-04  2.04857147E-04 -2.33709747E-02  6.33333004E-03 -1.21609132E+00
 -2.09254593E-03  2.72936090E-02 -7.09920375E-03  1.42050391E+00  7.20038958E-03
 -1.15805741E-02  3.30440371E-03 -6.85103036E-01 -5.11270183E-04  2.19839385E-02
 -4.07209980E-02  7.44570046E-04 -1.07104803E-03 -1.91518201E-03 -1.97965051E-03
  5.20880078E-02  4.84227484E-02 -7.21915755E-04 -7.44576731E-02 -9.14899097E-02
 -1.01690642E-01  1.58525743E-03  5.18339845E-01  1.01820053E+00  4.75129566E-01
 -1.47688246E-02 -4.95510127E-02 -5.82495556E-03 -3.64594042E-04  2.71373683E-01
 -8.73968101E-02  4.62549741E-03  6.82153274E-03 -3.87101621E-02 -7.05270563E-02
  2.20239934E-03 -2.87442776E-02  1.81447323E-01  1.70766319E-01  1.40429353E-03
 -1.04733882E+00  2.99084744E-01 -1.48234829E-01  3.22723180E-02 -3.58841884E-02
 -2.66845955E-03 -1.38278917E-02 -1.02025715E-01 -2.91882934E-02  3.91221736E-03
 -1.43062665E-01  1.03535379E-01 -1.19452487E-01  2.41016863E-02 -6.71927029E-04
 -6.83917518E-02  2.63720872E-02  1.11217716E-01  4.08111788E-02  3.68105455E-02
 -5.74391255E-03  8.74826245E-03  6.35526510E-02 -2.60333358E-02 -1.51632547E-02
  1.17148298E-02 -1.22297506E-02 -1.70833566E-03  1.07639896E-01 -1.66210952E-02
 -3.02785123E-02  2.42849145E-02  1.17930919E-02 -2.00203032E-04 -3.56229685E-04
  6.95799000E-02  1.46562267E-01  9.13079652E-03 -3.46343822E-02 -1.11773397E-01
 -1.46593114E-01 -1.10730218E-02  5.41704376E-01 -2.71360837E-02  1.76076097E-01
  5.81103776E-03 -1.21587241E-02 -2.46099752E-05 -1.63932445E-03  8.38867491E-02
  6.99380031E-02 -2.99717078E-04 -4.43163203E-04 -1.02477093E+00 -7.23558090E-01
  1.31151078E-02  5.52220710E-03  1.24648509E+00  8.72118281E-01 -1.60234294E-02
 -4.86921140E-03 -7.14348352E-01 -4.75502749E-01  1.00729189E-02  6.43314106E-03
 -1.04107887E-03 -3.88520197E-04  7.61137538E-02 -2.86573587E-02  3.43578114E-02
  3.69990640E-02 -2.60307084E-01 -1.43192425E-01 -2.04539299E-03 -2.02847806E-01
  9.74348732E-01  3.97528241E-01 -2.90959222E-05 -6.74022184E-01 -2.89385352E-01
  3.80431864E-01  1.83149440E-03  1.86125691E-01  6.43576048E-03 -3.14635209E-03
  3.95080442E-01 -2.50782199E-01  1.01754153E-02  1.10532517E-02 -1.30092523E-01
 -5.27995182E-02  7.29182332E-03 -4.31499052E-02  4.74609678E-01  1.87533854E-01
 -3.63472045E-02  1.11476956E-01 -7.58130667E-02  1.10854406E-01 -2.38075400E-02
  3.32271137E-02 -1.05633960E-02 -2.21453044E-03 -2.66798512E-01  8.65929146E-03
 -1.98114271E-01 -3.20115978E-01 -2.51775964E-02 -4.81113652E-01 -8.31111608E-02
 -1.10606685E-03 -5.64512028E-02 -2.19171998E-01 -7.78051310E-03  4.24002893E-02
  1.48288739E-01 -9.77370436E-03 -4.42612620E-02  1.20805427E-01  2.73978822E-02
 -7.09410353E-02 -2.10184104E-02 -4.65343235E-03 -5.19704642E-02  8.68162357E-02
  1.37403252E-02 -5.87649051E-02 -2.92785157E-02 -1.41129686E-02 -1.37263557E-02
 -2.30491769E-02  6.92495173E-01 -9.34908665E-01  4.08271272E-03 -1.03986171E-02
 -9.52835010E-01  1.29632983E+00 -5.62226220E-03  1.36456525E+00  4.25456522E-01
  4.12214960E-02  1.42979499E-03 -3.14456649E-01  6.03144833E-05 -9.18166068E-04
  1.38008954E-02  1.48673596E-01 -3.40796306E-03 -5.80764261E-03 -2.89183950E-01
  3.02382947E-01  7.41770024E-03  2.10154688E-02  3.89909398E-01 -3.73820399E-01
 -9.75926386E-03  5.46244740E-02 -1.13419212E-01 -2.18200430E-02  4.13181982E-03
 -8.63030918E-02 -2.17329568E-03  1.43912823E-03 -4.09350370E-02 -7.38487122E-02
  5.58824190E-02  6.03049184E-02 -1.57385370E-01 -1.08171130E-02  7.60173722E-05
 -3.46506176E-01  9.04699487E-01 -3.94076417E-01 -1.11208598E-02 -1.56311455E-01
  2.22644662E-01 -5.59033731E-01 -1.03632839E-02  2.56686417E-01  7.63041440E-03
 -1.45441315E-02  6.34632171E-01  3.36633175E-01  1.28818948E-02  1.25231866E-02
 -1.22346757E-01 -4.00546916E-03  1.01990427E-02 -1.05059921E-01  6.04703696E-01
  1.99404538E-02 -4.13506655E-02 -2.55376058E-02 -4.49219453E-03  9.50076543E-02
  1.67453996E-02  6.45081406E-02 -1.33708778E-02  1.66424885E-02 -3.05895252E-01
  7.09711645E-02  2.03229962E-01  3.43428962E-01 -1.15929633E-01  5.34831575E-01
  1.77845169E-02  3.25319214E-04 -8.66017044E-02 -1.16581413E-01  1.59093039E-03
 -2.74179949E-02  1.31621857E-01 -1.58341502E-02  1.65418013E-02 -1.37726740E-01
  3.63871459E-02  1.82064341E-02 -9.93712220E-03  4.90006111E-02 -1.54470594E-02
 -1.56893354E-01  5.26471314E-02  3.75760407E-02 -2.91669367E-02 -7.29181134E-02
  5.43179102E-04  1.29794525E-03 -9.17825205E-01 -2.68069968E-01  3.29917990E-03
  4.06701486E-02  1.41937886E+00  4.13259657E-01 -4.67019609E-03 -5.32196245E-01
 -3.98824685E-01 -1.93157155E-01  4.32166213E-03  7.82368029E-02 -3.20865479E-03
 -9.85146454E-04 -2.58236643E-01  1.45258222E-01 -1.35038938E-02 -2.40519827E-02
 -5.38671008E-01  6.32681817E-01  1.22475039E-02  1.01971223E-01  8.62706981E-01
 -1.03510905E+00 -2.01236556E-02  1.09923536E+00  3.10962567E-02 -2.32551157E-02
 -2.24335111E-03 -1.77325073E-01 -8.40413720E-03  7.08548251E-03 -2.73662502E-02
 -3.34888184E-01 -1.28316648E-02 -3.19908336E-02 -1.94902997E-02 -3.65602824E-01
 -1.98899292E-03  2.98985078E-01 -2.55725689E-01  1.83250804E+00  1.72692630E-02
  3.83531254E-01 -2.70230065E-01  5.21648514E-01  8.68969375E-03 -6.96160734E-02
 -1.32958475E-02  2.03254357E-02  1.83900602E-01 -1.04216292E+00  3.44080886E-03
  5.03492205E-03  9.56532480E-03 -1.15018205E-02 -9.24455121E-04 -4.21140925E-02
 -8.35810866E-03  7.87046046E-02  6.49777335E-03 -1.77164974E-02 -2.03769905E-02
 -1.53859019E-01 -3.67915311E-03 -2.76878872E-02 -2.72014346E-04 -1.24519827E-02
 -2.78538784E-02 -2.72266723E-02  1.46934475E-01  1.93367838E-01 -7.70478164E-02
  3.25589853E-01 -9.96901855E-02  1.57386328E-03 -1.90692611E-02  2.08920050E-02
  6.29011320E-02  3.55349845E-02  2.25689764E-03  2.73111334E-03 -1.69536286E-02
  8.06622705E-02 -3.40782566E-02 -2.94493145E-02  1.97613093E-02 -1.58504042E-02
 -1.38438739E-02  8.97371178E-02 -4.36383071E-02 -4.11757210E-02  2.63652206E-02
  1.65973507E-02 -1.30173613E-02 -2.03405740E-02 -5.35680166E-01 -7.17637563E-01
 -2.00693470E-03  6.45003656E-02  9.11842419E-01  1.23659795E+00  3.15338014E-03
  6.46519320E-01  1.36830551E-01  2.67554637E-02 -4.39615333E-03 -9.91840473E-02
  1.65750719E-03 -8.88378650E-04 -4.50788413E-01  2.70743594E-01  2.23059247E-02
  3.91112809E-02  3.89147936E-01 -7.47825193E-01 -1.08415306E-02 -2.03624255E-01
 -7.42348939E-01  1.37745626E+00  2.10140085E-02 -1.50672443E+00 -2.04702016E-01
  1.81168534E-01  6.70633936E-03  2.01738719E-01  4.80130353E-03 -1.13721629E-02
  2.40605501E-01  4.07678109E-01 -2.02287986E+00  2.21659008E+00 -1.12719690E-02
  1.02020494E-02  5.65169128E-04 -6.57218054E-01  7.72550620E-02 -1.01049526E-01
 -3.90642237E-03  3.33039215E-02  3.37224410E-01 -3.44642579E-02 -2.59998851E-03
  1.28091005E-01  3.01029791E-03 -2.92403856E-03  3.48592041E-02  7.61177446E-02
 -2.26318999E-01  2.47890687E-01  6.39804652E-02 -1.19866663E-03  1.07202639E-03
 -1.02988886E-01 -2.01293345E-01  1.88074285E-02 -2.67093586E-03 -3.07622835E-01
  1.21556079E-01  1.14094528E-02 -6.84127250E-04 -7.17795627E-02 -3.48620564E-04
 -2.84543371E-03  8.24906617E-02  1.79509433E-02  1.99772077E-03 -6.01554396E-02
  3.29618489E-02 -1.73959785E-02 -9.49414723E-03 -2.92432438E-04  2.53958849E-03
  7.67722914E-02 -2.24898861E-02 -3.57920604E-03 -4.01901714E-02  2.73567247E-03
  1.31426167E-02  1.14804265E-01 -2.56507419E-02 -1.59526733E-02  2.61593759E-02
 -5.70858285E-02  1.43690066E-02  1.15885347E-01 -2.67214702E-02 -1.55985870E-02
  3.61261531E-02  5.12166625E-02 -2.05667514E-06  1.69271472E-04 -1.94611617E-02
 -3.28208179E-02  1.73714469E-04 -5.46125197E-02  3.98074555E-02  6.02597452E-02
 -4.90119548E-04  2.59465410E-01 -3.13753529E-02  1.39332922E-01  8.36352105E-04
 -4.86580906E-02 -1.68524055E-04 -8.40287046E-05 -3.09160489E-02  4.32166961E-02
 -9.60929503E-03  8.35004087E-04 -4.14747794E-02  5.17427200E-02  1.10656340E-03
 -1.95273934E-02  1.24133170E-01 -1.54719393E-01 -3.30282137E-03  4.36816078E-01
  4.67804410E-02 -1.76846644E-01 -2.85522609E-03 -6.60036077E-02 -1.94274209E-03
  3.05587014E-03 -4.22375418E-02 -9.65249543E-02  2.25306593E-01 -2.48152718E-01
 -5.47547595E-02 -2.68576921E-03 -1.44613953E-05  5.58146427E-02  1.33693976E-01
  1.01215406E-02  6.45693307E-05 -1.69429245E-02 -3.81064112E-02  1.08577670E-02
 -2.16745405E-03 -2.46717805E-02  1.47373446E-04  3.86970357E-04  8.22631596E-02
 -4.27201348E-03 -2.02589746E+00  2.22626425E+00  5.35070737E-03 -2.02524433E-03
 -2.75527344E-04 -7.31312213E-01 -9.17231367E-02  3.81336389E-02  1.07762496E-02
  5.32671735E-02 -4.32061324E-02 -2.43081497E-03  1.19351365E-03 -3.08043071E-02
  3.82177939E-03 -1.13333798E-02  8.23941679E-03  2.00276282E-02  3.58767543E-03
 -1.62384991E-02 -3.56161007E-03 -3.03015719E-03 -2.04550924E-03 -2.44932466E-04
 -1.79419711E-02  1.95014408E-01 -4.33854668E-02 -3.63672196E-02 -1.33316434E-01
  9.43935717E-03 -4.43762890E-03  2.43631268E-01 -5.64557386E-02 -5.60723311E-02
  6.46473260E-02 -1.49810044E-01  2.26607374E-03  2.70253737E-01 -6.34603000E-02
 -6.40356146E-02  9.86414535E-02  1.47688733E-01 -2.47765620E-03  1.14513910E-04
 -3.41318645E-03 -4.69044819E-03  2.41417206E-04  1.07004809E-02  1.29228044E-02
  2.22190510E-02 -7.21163246E-04  2.66646113E-02 -5.14570316E-03 -2.05321127E-03
  1.54861997E-03 -2.12589789E-03  6.19363173E-05  2.08937973E-04 -2.35791840E-03
  7.28101446E-03 -2.39038474E-03 -5.78308338E-06 -4.21292081E-03 -2.19137651E-03
  3.01020782E-04  1.90823470E-02  1.77780628E-02 -2.41479943E-03 -9.91904883E-04
 -1.82159862E-02 -5.01407916E-03  5.13653350E-03  1.57497886E-03  3.43768848E-03
 -1.61656403E-04 -2.14122370E-04  7.37043498E-03 -4.61419680E-03  1.86471270E-03
 -2.64482735E-03  1.58101558E-02  9.53882304E-03 -2.10749633E-04 -2.84199645E-02
 -3.91584764E-02 -1.67159470E-03  5.09409977E-04 -1.36470853E-01  1.72877213E-01
  1.03256489E-01 -9.28399466E-04 -2.56509399E-03  4.15772545E-04  4.47694311E-04
 -4.17007977E-02  1.52822399E-03  3.94420788E-03 -6.65258230E-03  8.03053812E-03
  1.17013393E-03 -2.57411210E-04  1.79740275E-02 -4.96538268E-02 -1.76107183E-03
  1.00698262E-03 -1.47824521E-01  4.35335238E-02 -6.44796305E-03 -4.33445514E-03
 -7.69609501E-03  1.36542257E-04 -1.01281837E-03  2.35412421E-02  2.32496367E-03
 -4.14842288E-03  6.68482863E-03  1.22941996E-02  3.65255765E-02 -4.26286172E-03
 -8.40462024E-05  3.78463837E-03  2.13199146E-02 -9.68179478E-03  3.02218405E-03
 -9.54378960E-03  1.47264480E-03 -3.96699524E-03  3.57844725E-02  6.42365492E-03
 -7.07706568E-03  2.60212776E-03 -9.73150704E-03 -1.99185242E-03  3.41971589E-02
  2.04289298E-03 -7.36280705E-03  3.96518390E-03  9.83839313E-03 -2.08212781E+00
  2.16833294E+00 -1.90206557E-03  1.03285187E-02 -2.27249597E-05 -2.84526537E-01
  9.30189714E-03 -3.89147868E-02  5.65592021E-05  3.40112735E-01  2.01123006E-02
  1.09121160E-01  2.80972626E-04  3.88274764E-03  7.32410215E-05  8.04841549E-05
 -1.00737597E-02 -3.73786223E-03 -8.44230077E-01  8.77583787E-01  1.83844224E-03
 -3.35642690E-03 -1.43014262E-05 -1.06585851E-01 -6.67755611E-03  1.40020890E-02
  1.02941074E-04  1.27819851E-01 -2.10145125E-02 -5.62790281E-02 -8.85816162E-05
  2.39055726E-03  3.13375059E-04  4.14706568E-05 -9.02555501E-03  4.34597661E-03
  9.41588689E-03 -1.52100615E-02  1.30997214E-02 -3.17251199E-02 -3.53848543E-04
 -3.15200833E-03 -4.73986503E-02  8.54452742E-02  1.11807888E-03 -7.79295316E-02
  1.01928677E-01 -2.42890947E-01 -3.87668397E-03 -1.60761819E-02 -1.13393494E-03
  1.39749078E-03 -1.70588923E-02 -7.92470052E-02  2.58302889E-03 -4.37623323E-03
  3.36010407E-03 -4.84745834E-03 -3.66352563E-04  3.86774893E-03 -1.51543517E-02
  1.53519597E-02  1.65344531E-03 -2.29431225E-02  9.64280290E-03  6.33366180E-02
  2.28326787E-03 -1.26040341E-03  1.95604542E-04 -7.04063053E-04  1.00227791E-02
 -1.84944686E-02  3.92553902E-03 -3.82929949E-02  8.13241612E-03 -2.23422218E-02
  5.57474832E-03 -2.12836332E-04  3.80806114E-03 -1.52747386E-02 -4.01419569E-03
 -3.07336842E-03 -6.99393064E-04 -4.98644839E-04  1.45199595E-03 -3.91019224E-03
  2.50280362E-03  4.56605033E-03 -4.46318053E-03 -1.45569696E-03  1.84795775E-03
  1.19418728E-03  2.96203014E-03  4.50152262E-03 -3.67007420E-03  3.27581474E-03
  8.44656563E-01 -8.83021821E-01 -8.50372892E-04 -9.85385154E-03  1.16524629E-04
  1.30325979E-01  4.58968473E-03  3.62880259E-02 -3.89543849E-04 -1.36686353E-01
 -7.14463608E-02 -1.84694432E-02  1.35514937E-03 -7.34538494E-03  1.85854334E-04
  7.21084160E-05 -8.46604943E-03  1.33164837E-03 -2.08259960E+00  2.17325959E+00
  1.14758048E-02 -1.76648214E-02 -4.41588306E-04 -3.13745445E-01 -4.91553985E-02
  7.38324926E-02  1.71930122E-03  3.74889815E-01  6.32164224E-02 -6.95289055E-02
 -1.94520215E-03  8.40822574E-03  2.22273703E-04 -5.16494239E-04  1.03609379E-02
  1.59142647E-02
Total SCF Density                          R   N=        4656
  6.59030677E-01  5.61024637E-01  4.90680005E-01 -2.52874108E-03 -4.00092077E-03
  9.29899517E-02 -4.17704861E-03 -5.52535075E-03 -8.30138767E-03  8.38381742E-02
 -2.50641440E-05 -1.01813176E-05 -3.31595053E-04  3.33311401E-04  6.00661606E-02
 -9.27512334E-02 -1.58782633E-01  9.76162691E-03  1.43632290E-02 -5.49529281E-05
  5.00979657E-01 -2.98718000E-03 -5.17267250E-03  1.34923603E-01 -1.02018083E-02
 -4.47605907E-04  1.35451875E-02  1.96424496E-01 -8.15954974E-04 -2.04471723E-03
 -8.66995933E-03  1.18876726E-01  3.39860103E-04  1.10730144E-02 -1.01366605E-02
  1.69126594E-01  9.40490325E-05  1.26054036E-04 -4.20434773E-04  3.97263478E-04
  9.17670661E-02 -2.79592000E-04 -5.69938471E-04  3.70309001E-04  1.40333735E-01
 -5.12516193E-02 -7.76053893E-02  3.85172560E-02  4.14176271E-03 -8.22113123E-04
  2.16659145E-01  5.38716072E-02  3.80386501E-03 -1.20278491E-03  1.16654894E-01
 -2.31722622E-02 -3.08192217E-02  4.94379194E-02  2.56029513E-02  7.42486314E-04
  6.97870672E-02  6.88496918E-02  3.75374071E-02  1.17112699E-03  5.45381418E-02
  7.02296317E-02  4.88524578E-03  7.42484497E-03  1.19148502E-02 -1.02427156E-03
 -1.24876300E-03 -2.21886106E-02  1.55135587E-02 -8.42512725E-04 -1.90599194E-03
 -5.67407561E-03  1.68293399E-02  2.51214635E-02  2.69573763E-04  3.99245583E-04
  5.31376680E-04 -8.33092206E-04  6.74773491E-02 -1.04785119E-03  8.47779627E-04
 -1.28419464E-03  1.02550119E-01 -1.43930555E-03  2.18357625E-04 -1.40082243E-03
  7.81080313E-02  1.72733491E-03  4.16295746E-03  3.03026545E-03  8.75889191E-04
  2.89815840E-04 -1.62682150E-02  4.39262352E-03  1.78990951E-03  4.56441037E-04
 -4.67334403E-03 -7.59222700E-04  4.36480199E-04  3.96159075E-04  9.38268631E-04
 -2.32846875E-05 -7.33580259E-06  8.86740676E-05 -6.38456592E-05 -8.33974386E-03
 -8.89915538E-05  9.57830124E-05 -6.59308876E-05 -1.23440957E-02  3.78579890E-04
  1.15205130E-04  3.42472858E-04 -1.10453697E-02 -3.77478764E-05  2.39942586E-03
 -1.85064733E-05 -5.64386768E-05 -6.29878670E-05  1.97125507E-04  4.88714344E-03
  2.39815008E-04 -9.59957308E-05  2.32638550E-04  7.55959357E-03 -1.61763538E-04
  1.93347459E-04 -9.48137340E-04  5.78639195E-03  7.54716428E-05 -1.01640216E-03
  5.76115428E-03  3.98108885E-04  5.83089958E-04  7.11424450E-03  9.32911057E-04
 -8.31543571E-05 -6.84545236E-04  1.22100280E-02  1.56245395E-03 -1.27142505E-04
  7.05200482E-05 -1.06756611E-02 -7.25862722E-03  2.85500321E-04  1.13507391E-03
 -6.35177650E-05 -5.96235987E-05  1.11831537E-02 -2.02425934E-05  7.04516922E-04
  4.85967984E-04 -1.45683251E-02  2.14679907E-05 -4.49908471E-03 -4.46127594E-04
 -2.01367407E-02  5.64781530E-05 -1.82687099E-03 -1.11559960E-03  7.56154361E-03
  2.34191085E-04 -1.38935773E-04  3.93185192E-05 -4.81051221E-06 -2.78328419E-03
  7.56891979E-03  4.68326639E-03  7.35657572E-03 -1.46952549E-02  6.03170825E-04
  6.33671264E-05 -1.94897845E-02 -2.58048765E-02  8.20040465E-04  1.06196215E-04
 -6.19998717E-03 -3.38153072E-03  1.50424184E-03 -1.00498435E-04  9.36237702E-04
  1.31099688E-05  2.46261739E-05 -6.19759097E-03  5.93101132E-04  6.57732626E-01
  7.29836119E-03  1.13546163E-02 -2.33056700E-02  9.65982276E-04  9.93282776E-05
 -2.99672767E-02 -3.85954533E-02  1.24209470E-03  1.60380850E-04 -1.10284536E-02
 -5.87133557E-03  2.17356358E-03 -1.82076543E-04  1.27411228E-03  2.29919237E-05
  4.07776779E-05 -8.82984303E-03  9.79859909E-04  5.58725268E-01  4.86876685E-01
  1.93427539E-02  3.13269436E-02 -6.48783630E-02  2.22334778E-03  3.84466417E-04
 -9.36273920E-02 -9.47367987E-02  2.84053064E-03  5.64646206E-04 -6.48775132E-02
 -3.71886350E-02  1.92950691E-03 -1.82638042E-04 -3.05079375E-04 -2.62872409E-05
  6.89318763E-05 -1.10478842E-02  2.91297681E-03 -1.21438766E-03 -1.62134014E-03
  7.96387195E-02  4.06127395E-04  6.16766564E-04 -7.53823209E-04  3.23057683E-03
 -1.32307485E-04 -1.08985063E-03  6.04556855E-05  6.14725461E-03 -2.31357264E-04
 -9.38602914E-03 -1.07000826E-02 -5.78526459E-03 -3.43365190E-05 -1.76114549E-04
 -1.11482945E-05 -1.16565605E-04  4.79545301E-04  9.93068481E-03  1.65477517E-04
  2.38312029E-04 -1.62850571E-03  8.67465161E-02  1.03729721E-05  2.78555707E-05
  4.85361082E-05 -8.22972737E-05  9.34643604E-03 -2.38651416E-04  2.02637408E-05
 -1.44806838E-04  1.75942254E-02  1.79763871E-03  6.73188174E-04 -3.88844409E-05
 -3.37569675E-03  6.24803472E-05  8.95834287E-03 -1.14103159E-03 -1.94991596E-05
  7.91406980E-06  2.48781787E-04  3.62343005E-04 -3.13930456E-04  5.79380289E-04
  8.64102284E-02 -1.98657632E-02 -3.08674296E-02  6.54418696E-02 -2.69101986E-03
 -3.03068045E-04  8.23297357E-02  1.01022303E-01 -3.24653889E-03 -4.64281468E-04
  3.59744076E-02  1.86502288E-02 -5.16017240E-03  5.34792922E-04 -2.80587492E-03
 -5.39350996E-05 -1.43315023E-04  2.15840632E-02 -2.80407208E-03 -7.68305219E-02
 -1.34739658E-01  2.72842802E-04 -7.87209601E-04 -7.94343384E-04  4.02964275E-01
  3.47617547E-02  5.28368721E-02 -9.68258077E-02  5.31274487E-03  5.97584661E-04
 -1.46846553E-01 -1.41239157E-01  7.23258850E-03  8.87588924E-04 -9.95863089E-02
 -5.68331963E-02  1.63978280E-03 -2.78992939E-04 -5.47595469E-05 -2.48982445E-05
  8.65240797E-05 -1.57419013E-02  3.43996131E-03  2.45839762E-03  2.67287610E-03
  1.17651293E-01 -1.71305341E-03 -2.17019394E-04 -8.35723315E-03  1.74351242E-01
  4.88364577E-04  9.24017581E-04 -2.02640478E-03  5.87306920E-03 -2.32602087E-04
 -2.24796024E-03 -1.12459532E-03  1.05815019E-02 -4.14907504E-04 -1.43465201E-02
 -1.62455441E-02 -9.90177869E-03 -5.88204106E-05 -2.62223559E-04 -6.58515787E-05
 -1.32745220E-04  8.56945342E-04  1.36922700E-02 -3.39038588E-04 -2.84560658E-04
 -1.57891721E-03  1.26402259E-01  4.42851186E-04 -3.48628154E-04 -1.21700396E-03
  1.84325090E-01  2.65285749E-05  1.82896488E-05 -3.89330725E-05 -1.41887559E-04
  1.50596657E-02 -1.65707311E-04 -1.31111467E-04 -2.61668365E-04  2.77728147E-02
  2.59331762E-03  1.01145144E-03 -3.66573974E-05 -3.00888121E-03  8.25641612E-05
  1.26338805E-02 -1.35201786E-03 -5.31490608E-05 -5.05914988E-06  4.74972532E-05
  1.82670256E-04 -2.67252947E-04  3.98648211E-04  1.24334661E-01 -6.87887091E-04
 -6.37338671E-05  1.96982239E-06  1.78955512E-01  1.01139155E-02  1.08060539E-02
  2.44646003E-02 -2.29701337E-02 -6.02848307E-04 -1.72022338E-02  4.43693553E-02
 -3.24138822E-02 -9.92085077E-04 -2.31759485E-02 -5.32781534E-02 -2.50596204E-02
  1.17300637E-03  9.50525435E-04 -3.85333544E-04 -4.11790269E-04  3.67898441E-02
 -4.54329410E-03 -6.71699581E-02 -9.88165168E-02  2.09957509E-03  1.63741826E-02
 -1.95145913E-03  2.44910344E-01  7.09419773E-04  2.50355489E-02 -2.68225868E-03
  2.34717025E-01  4.79276777E-03  1.01817646E-02 -5.32120038E-02  9.84706138E-03
  5.14807674E-04 -3.77480535E-02 -7.93657658E-02  1.35584806E-02  7.77471607E-04
 -3.24798009E-02 -1.13387480E-02  6.39897058E-03 -3.93994186E-04 -1.61641790E-03
  8.02502041E-05 -1.28007879E-05 -1.60065550E-02  3.87423103E-03 -1.23567192E-03
 -2.59877746E-03  6.58401739E-02 -2.96625952E-03  2.10268980E-04  6.21456044E-03
  9.59498535E-02 -3.88064577E-03  5.02185240E-04 -2.20157066E-02  6.48667727E-02
 -3.02044747E-03 -4.77503849E-03 -7.66626958E-03  6.59307158E-03  1.21119271E-03
  1.56117635E-02 -9.47128232E-03  1.06591222E-02  1.79640974E-03 -4.22097906E-03
 -1.65511230E-02 -1.24720394E-02  1.68523824E-03 -3.97863101E-04 -4.31247368E-04
  1.35978689E-03  3.86091405E-03  8.60668936E-03 -9.63951154E-04 -1.54408910E-03
 -1.70005615E-03  8.95533041E-02 -6.50110933E-04  4.08679432E-03 -1.73009056E-03
  1.30745874E-01 -1.30108919E-03  2.62026591E-02 -3.40093498E-03  9.59880093E-02
  3.96323809E-04  6.55361480E-04 -3.83116471E-04  7.85267020E-04  1.77201201E-03
 -2.22445596E-03 -7.92265769E-04  1.09595771E-03  6.23701500E-03  1.15566915E-03
  2.12130626E-03  3.15719841E-04 -1.22713492E-02  5.48396240E-05  1.01732256E-02
  2.52054036E-03 -1.13584239E-03 -2.17667060E-05  5.13743078E-04  8.19432902E-04
  1.20715822E-03 -6.35734473E-04  8.72327040E-02 -2.23463040E-03  1.99801879E-03
 -1.29915729E-03  1.25440869E-01 -5.73940731E-03  2.05352036E-03 -1.41536509E-03
  9.27157699E-02  2.74435704E-03  3.56365574E-03 -4.48736829E-03  4.94346912E-04
  5.17117108E-05 -7.85373310E-03 -6.44480571E-03  5.83939818E-04  1.55755261E-04
 -4.66077059E-03 -3.19739950E-03 -7.80206777E-05 -2.88124225E-04  1.27645654E-04
  2.27726359E-04 -3.85085259E-05  2.64304251E-04 -9.00642422E-04  3.71783953E-04
  1.91749151E-04  5.04715420E-03 -6.71973817E-03  1.91198665E-03  5.05151456E-04
  7.54005656E-03 -9.72522580E-03  2.78827405E-03  1.71863901E-03  3.48860334E-03
 -6.64879006E-03  2.05044242E-03  9.88811549E-04  6.56104952E-07 -3.40162441E-06
 -2.18170467E-06 -1.20089797E-05 -4.73041400E-03  1.23610329E-05 -1.17082000E-05
 -7.77545248E-06 -7.02155527E-03  1.60706382E-04 -7.88097595E-06  1.14743844E-04
 -6.15953670E-03 -2.58006329E-05  1.27832120E-03 -3.77424559E-04 -2.74366945E-05
  2.38236371E-05 -4.64265011E-05 -2.93188967E-05 -6.68958155E-06  1.74316252E-04
  4.43226187E-03 -4.61477564E-05 -4.94006146E-07  2.32713716E-04  6.23852784E-03
 -1.34900005E-04  2.46964980E-05  5.98163019E-06  5.25210230E-03  1.01886820E-04
  6.90132009E-04  6.28727438E-05  8.04489458E-05 -4.32517562E-05  6.21215760E-05
 -1.18539854E-04 -1.74501604E-04 -8.32300052E-05  6.02358787E-05 -4.95443839E-04
 -9.20960645E-05  1.92040496E-04  1.56086611E-04  1.18734964E-03  8.53154873E-06
 -9.62819877E-04  2.23527471E-04 -1.56580045E-05 -2.20506517E-04  9.24050545E-05
  2.02134231E-05  2.14162273E-04 -2.00205148E-03 -8.14415445E-03  3.10364464E-04
  2.75894761E-04 -2.87915808E-03 -1.16861934E-02 -1.05726275E-04  1.87453174E-04
 -1.91866152E-03 -8.24902888E-03 -2.08209922E-05 -4.86622978E-04  8.22254837E-04
 -4.92764669E-03 -6.79429053E-03  7.86493894E-03 -3.93477731E-04 -6.35118017E-06
  1.64291338E-02  1.11201129E-02 -6.78268374E-04  3.52583072E-05  1.08694986E-02
  7.95628855E-03  1.55677673E-03 -1.62627788E-04 -2.36424757E-04  1.38677368E-04
 -7.02885877E-07 -2.19300726E-04 -2.83855910E-04 -4.62809463E-04 -5.20848085E-04
 -8.82248037E-03 -4.74996418E-03  1.04689405E-03  1.13430415E-03 -1.33605332E-02
 -7.09376124E-03  1.51718897E-03 -5.14813550E-03 -5.56318192E-03 -5.27756169E-03
  1.10603387E-03 -3.31178506E-04  5.73533469E-05 -8.20328682E-06  1.58506909E-03
  1.52461812E-05  1.37691714E-04  1.29480470E-03 -5.00228769E-03 -6.49632884E-06
 -8.70593967E-04  1.90775976E-03 -7.02479857E-03  8.98440001E-07 -6.46458688E-04
 -2.24218013E-03 -1.91145967E-04  7.04226143E-05 -2.86042417E-05  1.31427899E-05
  1.02867032E-05  3.11852389E-04  1.37574295E-03 -3.78311202E-04 -3.76368644E-04
 -1.16299674E-03  4.64990328E-03  1.72441482E-04  3.89065584E-04 -1.78631640E-03
  6.68861406E-03  2.24678062E-04  3.21952296E-03 -1.84141024E-03  4.57967580E-03
  3.97505353E-05 -4.36324129E-04  1.66581702E-05 -1.29570044E-04 -1.73108966E-04
  5.96646644E-04  3.39356956E-03  5.37640679E-03  9.66906250E-03  1.09317868E-02
 -1.22355512E-04 -1.71233477E-02  1.52419946E-02  1.66241733E-02 -1.92094491E-04
 -1.44719807E-02  2.70786334E-03  2.05293769E-02  2.90766197E-04  1.17600730E-03
  4.08493825E-05 -1.30573626E-07  1.04860810E-02  6.09885031E-03 -3.21350499E-03
 -5.05636654E-03 -1.09295598E-02 -3.29313265E-03 -8.82842973E-05  1.49690703E-02
 -1.64644266E-02 -6.54256285E-03 -6.13069868E-05  2.22922846E-02 -1.39790913E-02
 -3.88916453E-03 -9.46564663E-04  9.36535328E-04 -9.11752472E-06  1.63484030E-04
  6.44284194E-04 -3.54795251E-04  7.62710358E-02  4.98213695E-03  6.95095360E-03
  2.07274760E-02  7.57891887E-03 -2.42450327E-04 -1.82427599E-02  3.21256780E-02
  1.19729427E-02 -3.70788669E-04 -1.27700282E-02 -2.20942124E-03  2.72385342E-02
  6.53251488E-04  2.27820074E-03  2.68549592E-05  3.91220294E-06  1.85396292E-02
  8.39447345E-03 -5.79225339E-03 -9.63171163E-03 -2.27494674E-02 -7.33549049E-03
 -3.20829177E-04  2.96282821E-02 -3.42408962E-02 -1.33033455E-02 -3.64301079E-04
  4.55207527E-02 -2.81454673E-02 -7.28202332E-03 -1.98038436E-03  1.18356159E-03
 -3.31005964E-05  2.83322428E-04  1.57546697E-03  6.93886386E-05  9.79211318E-02
  1.34031898E-01  5.31077537E-04  1.18741565E-03  2.08726734E-02  6.47631872E-03
 -2.16665491E-04 -4.88481571E-03  3.26118235E-02  9.73407700E-03 -3.37866647E-04
  3.55717602E-04 -1.07380813E-03 -2.67245647E-03  2.19317473E-04  1.57473549E-03
 -5.28526613E-05 -9.51354069E-05  1.29026646E-02 -4.01931079E-03 -4.41011848E-03
 -6.95699083E-03 -2.33510252E-02 -3.48120984E-03 -9.79209594E-05  1.99370557E-02
 -3.35738674E-02 -5.13322307E-03 -1.81449912E-04  3.45103391E-02 -2.76542175E-02
 -2.05399056E-03 -1.24863877E-03 -4.01046945E-05 -3.19354548E-05  7.62221088E-05
  1.21864887E-03 -1.90389421E-05  2.47269756E-02  3.57943254E-02  2.10531882E-02
  8.27080642E-04  1.06494614E-03  2.04862320E-04 -3.35649375E-04 -2.05901054E-05
 -2.80193280E-03  4.62604834E-04 -3.16831369E-04 -3.22449478E-05 -3.72976093E-03
 -5.36354118E-04  3.86248887E-03  6.64964247E-05 -1.32615878E-06  5.49930256E-06
  1.02807642E-05  1.52108921E-03  1.77273649E-03 -2.97321943E-04 -5.90652418E-04
 -8.00642965E-04  4.42946586E-05 -2.75736451E-05  2.17178279E-03 -1.32817391E-03
 -2.84919984E-04 -2.53626986E-05  4.04140944E-03 -1.64388806E-03 -1.43835665E-04
 -1.80786610E-04  1.75109796E-04 -3.13370943E-07  1.51348103E-05 -2.27170697E-05
  8.90799932E-05  1.49867703E-02  1.85328584E-02  4.12205911E-03  3.15492946E-03
 -1.36743842E-03 -2.27825634E-03 -4.04170951E-03 -4.40533432E-03 -2.27399572E-05
  7.22556245E-03 -5.95057986E-03 -6.58370656E-03 -3.52949959E-05  1.62208873E-03
 -4.14114722E-03  3.51469795E-04  2.86128578E-05 -3.48886911E-04  4.10402140E-06
 -1.38901687E-05  2.69621760E-04  1.45049575E-03  1.99493634E-04  2.69987513E-04
  1.37534734E-03  5.35664351E-04 -1.95865167E-07 -5.89203822E-04  1.72451533E-03
  6.00437954E-04  1.21235623E-05  2.01358934E-03  1.10023513E-03  1.16297099E-03
 -1.59247855E-04  5.97199327E-05  3.75587913E-06 -1.69777129E-05 -1.29986632E-04
  3.05755728E-04  4.42144480E-04  2.07364235E-03 -1.10832573E-03  1.96498241E-04
  1.02479223E-03  1.49669706E-05  2.08713444E-05  4.49508320E-05 -3.48369397E-05
  3.31789407E-03 -4.73845858E-05  7.41460179E-05 -4.35581500E-05  4.91586665E-03
 -3.05925715E-05  2.70113855E-06  3.50839213E-04  4.04905137E-03 -1.02517461E-05
 -6.43171837E-04 -2.15898959E-03  2.27180065E-05 -5.19939254E-06 -1.29018687E-05
 -2.23398420E-05 -3.55969511E-05 -4.26279835E-05 -1.41293984E-03  7.46898824E-05
 -5.20968719E-05 -7.17065596E-05 -2.00918828E-03  1.81100079E-04  6.82277271E-06
 -5.65850959E-04 -3.88462299E-03 -3.86848729E-05 -4.35942134E-04  1.55546771E-04
 -2.44988717E-05 -1.46706975E-05  2.87957752E-05  4.67119601E-05  4.95881971E-05
 -8.78999214E-07  3.47313320E-06  1.37580549E-03  2.95926092E-03  4.83066225E-03
 -7.45198629E-03 -5.15038297E-04 -3.66190587E-04 -1.52498026E-02 -8.83479184E-03
  5.25465419E-04 -8.03874599E-04 -2.14368208E-02 -1.83009877E-02 -6.04537075E-03
  6.15113195E-04 -7.84305382E-04 -6.56839636E-04 -1.79661346E-05  1.24816775E-03
  8.64640443E-03 -1.78714259E-02 -2.79292935E-02  2.20831941E-02  7.12043336E-02
 -5.32984047E-03  7.32300492E-02  3.15841015E-02  1.04198776E-01 -7.88606439E-03
  6.12825942E-02  1.71355862E-02  7.43545463E-02 -6.29714428E-03 -4.12526552E-03
 -1.78876900E-04 -1.01867174E-03 -6.46614352E-03  3.79093198E-03 -5.04711038E-03
 -9.46476365E-03 -6.21049666E-03 -6.64699606E-05  8.10499149E-04  8.12454377E-05
  7.94555821E-02  3.98359184E-03  7.14365815E-03 -1.09148337E-02 -9.76291436E-04
 -7.45300251E-04 -2.46242629E-02 -1.36204165E-02  4.11342958E-04 -1.47446201E-03
 -3.01323258E-02 -2.19326726E-02 -7.75347310E-03  4.41183318E-04 -1.13519746E-03
 -8.21348969E-04 -3.96212179E-04 -1.03507172E-03  1.18041156E-02 -2.36349418E-02
 -3.48754929E-02  3.06614796E-02  9.70899979E-02 -7.11007469E-03  8.50102524E-02
  4.41231812E-02  1.42138055E-01 -1.05626758E-02  6.97584208E-02  2.47565099E-02
  1.00280538E-01 -8.40581358E-03 -5.81306596E-03 -2.15846762E-04 -1.42075520E-03
 -8.68312070E-03  5.10776391E-03 -1.05881487E-02 -1.97464918E-02 -1.09562384E-02
 -6.51983723E-04  6.06454971E-04  2.52019443E-04  1.05854449E-01  1.42237823E-01
  7.85752596E-03  1.21921621E-02 -7.96074075E-03 -8.23711893E-03 -5.82093284E-04
 -3.58988734E-02 -1.19042682E-02 -1.08893149E-02 -1.05213298E-03 -2.39777319E-02
 -8.85542075E-03  5.54828451E-03 -6.95517523E-05 -3.72528474E-04 -3.13935451E-04
 -5.13089483E-04 -7.72654007E-03  9.11487680E-03  1.16797558E-03  7.50749478E-04
  1.97172843E-02  4.43188884E-02 -3.51239571E-03  1.35394275E-04  2.88497990E-02
  6.44025497E-02 -5.24037244E-03 -4.21244113E-05  1.66871638E-02  4.16364314E-02
 -3.69127003E-03 -2.85171828E-03 -8.04587292E-05 -6.42845807E-04 -4.03941484E-03
  2.75374782E-03 -9.03228954E-03 -1.51361152E-02 -1.23325101E-02 -8.42504418E-04
  5.70434176E-04  2.60618125E-04  4.31641660E-02  6.00798598E-02  3.46341661E-02
  9.30926691E-04  1.50190622E-03 -3.66346065E-03 -5.19437072E-04  1.31913972E-04
 -4.37492175E-03 -5.30734691E-03 -8.39448614E-04  2.10488795E-04 -2.85730367E-03
 -2.77336107E-03 -8.95922788E-04  9.86775323E-05  4.17381004E-05 -6.15520576E-07
  5.92343752E-05  2.19960935E-06 -5.23358982E-04  1.42808513E-03  1.82974692E-03
  2.89375440E-03 -2.97921229E-03  1.91985595E-04 -3.76853371E-03  4.42210892E-03
 -4.26237336E-03  2.94020054E-04 -7.32086624E-04  1.78008882E-03 -2.79100307E-03
  2.60499814E-04  4.72064717E-04 -3.81941677E-06  5.12026670E-05 -2.88945586E-04
 -1.62769792E-04 -7.93245645E-04 -1.22153800E-03 -4.32348141E-04 -1.03432962E-04
  6.56282289E-05 -2.19793858E-05 -2.25696050E-03 -3.00399664E-03 -1.24092758E-03
  3.19633059E-04  4.68083329E-04  4.36507236E-04 -2.55372269E-05 -2.37870434E-04
  1.32130395E-04 -8.17969927E-05 -2.51446894E-04 -4.36476547E-04  2.30432328E-04
  1.29419019E-03  6.27005743E-04  2.15559591E-04  4.06686880E-05  1.71310095E-04
  6.04703936E-05  2.91973860E-05 -5.61312931E-05 -6.53468673E-04  5.48910426E-03
  7.06785205E-03 -2.90425921E-03 -4.93157639E-03  6.70297663E-04 -1.41399251E-02
 -3.97049361E-03 -7.24369883E-03  9.67369712E-04 -8.75764668E-03 -2.81250143E-03
 -5.15750503E-03  7.20816955E-04  2.35261434E-04  2.02343782E-05  3.59871640E-05
  5.14776667E-04 -2.25865292E-04  2.81250944E-04  7.06152424E-04  6.69251751E-04
 -2.34194624E-05 -2.37283801E-05 -1.75570535E-05 -7.57220973E-03 -9.91585734E-03
 -3.49095809E-03  2.24593292E-04  9.22763011E-04 -2.63259180E-05 -2.15436032E-05
  1.39490464E-05 -3.58462613E-05  7.36248008E-04 -2.78633040E-05  3.46613083E-05
 -4.10506399E-05  1.30500681E-03 -4.38562686E-05 -4.23904782E-05 -5.32807627E-06
  6.98300658E-05 -1.16969911E-05  4.58919978E-04 -7.02169767E-05 -1.19921566E-05
  1.04863200E-04 -3.85158262E-04 -4.95092625E-04  1.98757779E-04  7.10610097E-04
  4.76088309E-03  9.90759473E-04  2.82644155E-04  1.01469275E-03  6.85421266E-03
  5.74188060E-04  2.17901737E-04  6.55843046E-04  4.75109810E-03  6.25721580E-05
  2.25319244E-04 -4.60447722E-04  4.45627634E-06  4.68867695E-05 -3.13073916E-05
 -8.50681695E-05 -8.35452918E-05  3.69941078E-06  7.66817641E-06 -5.32849928E-05
  5.24491639E-04  6.96105103E-04  2.49086907E-04 -1.76461572E-05 -4.90628209E-05
  2.72221216E-04  2.83212950E-03  4.74890992E-03 -8.66178666E-03  6.17982914E-04
  3.32939088E-03 -1.60701660E-02 -1.20172188E-02  3.99150272E-04  7.58050777E-03
 -1.04023906E-02 -4.10167164E-03  1.99804311E-03 -6.80704266E-03 -4.84224934E-04
  7.26961493E-03 -1.27468710E-03  2.36505522E-04 -2.99012217E-03 -1.89290183E-02
 -2.93651416E-02  2.70060168E-02 -2.90347042E-02  6.40503239E-02  7.66237863E-02
  3.81952813E-02 -4.21890067E-02  9.23486014E-02  3.99971407E-02  2.45506860E-02
 -3.01298544E-02  6.57034942E-02  5.45694996E-03  3.56899351E-03 -5.33127999E-03
 -3.58463133E-04 -1.82196970E-03  7.96743286E-04  8.86763001E-04 -2.76841613E-03
  1.63022001E-04  7.71562308E-05 -1.19450488E-03 -6.31391568E-03 -1.11062151E-02
 -1.07879463E-02  1.34232831E-03 -1.55723013E-03  3.56055565E-03  8.13973355E-02
  1.56702901E-03  3.64511006E-03 -1.27515646E-02  6.43699445E-04  1.83326218E-03
 -1.59893450E-02 -1.82896557E-02  1.68275669E-04  6.15162127E-03 -1.04075968E-02
 -2.81338745E-03  5.27382342E-03 -1.23539739E-02 -8.18172058E-04  1.03296547E-02
 -3.48684055E-03 -1.20288860E-03 -3.22644609E-03 -2.57506672E-02 -3.75198307E-02
  3.49563688E-02 -4.14347979E-02  8.68591182E-02  9.05782436E-02  4.92864165E-02
 -6.04309256E-02  1.25120595E-01  4.19667536E-02  3.33627880E-02 -4.37367733E-02
  8.83144215E-02  7.32352787E-03  5.04258037E-03 -7.24032081E-03  7.54029987E-05
 -2.60010298E-03  1.94637070E-03  2.29670648E-03 -5.09685555E-03  3.85633402E-04
  3.85937813E-04 -1.06276916E-03 -1.33464426E-02 -2.09918301E-02 -1.55575104E-02
  1.80453833E-03 -1.52102977E-03  4.77676868E-03  1.08216197E-01  1.45322981E-01
  4.04515999E-03  6.04605026E-03 -1.34354168E-02  5.09909704E-03 -3.59978541E-03
 -1.66783050E-02 -2.00548472E-02  6.95212492E-03 -4.05984631E-03 -8.83813436E-03
 -7.71421651E-04  2.55866495E-03 -1.07644892E-02 -1.74691904E-04  5.34524013E-03
 -4.19287693E-03 -3.67521962E-03 -2.31790162E-03  9.02768097E-04  1.85574679E-04
  1.80954129E-02 -1.90845603E-02  3.86579216E-02  2.54212666E-03  2.66602980E-02
 -2.77326025E-02  5.54587801E-02 -7.90403455E-03  1.74810585E-02 -2.13094448E-02
  3.83663976E-02  3.38682765E-03  2.58455418E-03 -3.29611671E-03 -2.41700202E-04
 -1.61025584E-03 -2.52920985E-03 -6.03749072E-03 -5.23951235E-03 -4.44496803E-04
 -3.35290618E-04  3.17102423E-04 -1.28244616E-02 -1.67651847E-02 -6.76007711E-03
  1.21785134E-03  5.56040634E-04  2.02216432E-03  4.24087195E-02  5.88471371E-02
  2.91371987E-02  1.25264823E-03  1.91646358E-03 -3.93188942E-03  6.04190392E-04
 -4.17868353E-04 -5.26391068E-03 -5.83094788E-03  8.65882225E-04 -7.77482122E-04
 -3.58676623E-03 -1.83109675E-03  2.60183880E-04  1.00112760E-04  2.29602108E-05
 -4.00997144E-04  3.78854077E-04 -9.49682307E-04  3.98655062E-04  2.25279447E-03
  2.93685757E-03  3.63134372E-03  1.58537539E-03 -3.83852601E-03 -6.22164738E-03
  5.49186809E-03  2.34167927E-03 -5.52107353E-03 -3.84820732E-03  3.02132907E-03
  1.65975086E-03 -3.52406745E-03 -1.09082110E-06 -1.83661137E-04  3.33008864E-04
 -5.32274072E-04 -1.69247267E-06 -6.71808499E-04 -1.47644286E-03 -1.53657801E-03
 -5.91723098E-05  7.82387700E-05 -9.33919858E-05  1.45222788E-03  2.20613749E-03
  1.92783660E-03  1.11078258E-04 -3.65688250E-05 -2.06123377E-04 -3.36592565E-03
 -4.53816064E-03 -1.44449737E-03  4.92305163E-04 -8.49296066E-05  6.92326763E-05
  4.99627912E-05 -2.48002161E-04  4.11077101E-04 -9.44721541E-04  1.90050672E-04
 -2.69717183E-04  7.64472381E-04 -1.07323537E-03 -7.78782757E-04 -1.60004233E-04
 -1.06565329E-04 -4.52076509E-05  3.72216041E-04 -9.82794385E-05  7.54971663E-05
  5.51913350E-04 -2.36779705E-03 -2.98732092E-03  1.25557899E-03  3.93566304E-03
  3.63543957E-03  5.74868685E-03  1.75401675E-03  5.73452435E-03  5.22056363E-03
  4.20881815E-03  1.04591057E-03  3.98539047E-03  3.58519406E-03 -1.44917245E-04
  1.90333526E-04 -4.25643329E-04 -2.95465045E-04  2.30156505E-04 -1.81474644E-04
 -3.69819347E-04 -3.26953451E-04  1.63511878E-05  3.90001585E-05 -3.79270977E-05
  4.46978250E-03  5.92522155E-03  2.34031510E-03 -1.40540310E-04 -4.57102356E-04
  2.51133891E-04  2.92732611E-03  3.67555052E-03  1.09596362E-03 -1.23291674E-04
  4.42275864E-04  5.35880570E-04  4.17037636E-04  4.27275615E-04  2.44724827E-04
 -4.47453340E-04  4.04621630E-04  5.60749228E-04  4.13707317E-04 -7.94533013E-04
  5.85077013E-04 -1.56909746E-04 -5.47165953E-04 -1.35053226E-05  1.36714092E-04
 -2.97469270E-04  1.57261335E-04  9.76606364E-05  2.25187321E-04  5.37195174E-03
  6.74050062E-03 -3.42073948E-03  3.80994271E-03 -2.93894180E-03 -1.28488171E-02
 -4.68475544E-03  5.52760908E-03 -4.27143168E-03 -6.25945128E-03 -3.42279449E-03
  3.95004020E-03 -2.94435413E-03 -5.44928468E-04 -1.33282950E-04  1.78188906E-04
  2.86578513E-05  2.30964455E-04 -3.03705538E-05 -6.34315034E-05  5.34428582E-04
 -1.55227165E-05 -2.98681532E-05 -2.08402670E-05 -1.07750463E-05  3.63874723E-04
  1.00869144E-03 -1.04478108E-04  3.61447984E-04 -1.78210712E-04 -7.06942370E-03
 -9.28913417E-03 -3.09854066E-03  2.54304903E-04 -2.02312241E-04  8.49712299E-04
  2.81894104E-03  4.74071225E-03 -8.93668546E-03  7.99566725E-04 -2.79589348E-03
 -1.60032760E-02 -1.24940283E-02  5.03724019E-04 -6.50799750E-03 -1.22373443E-02
 -3.49109126E-03  2.78062834E-03  6.14140629E-03 -5.23880164E-04 -6.55678303E-03
  1.27656858E-03  4.05240727E-05 -4.14981968E-03 -1.96557688E-02 -3.04166442E-02
  2.84098320E-02 -4.03360371E-02 -5.85475245E-02  7.90321056E-02  3.97966469E-02
 -5.80843227E-02 -8.37971347E-02  4.09421463E-02  2.54485626E-02 -3.97955300E-02
 -5.85543353E-02  3.57069703E-03 -3.35608756E-03  6.55597577E-03 -1.33245280E-03
 -2.66443904E-03  1.40625344E-03  2.22070944E-03 -2.46231671E-03  2.14024489E-04
 -2.74677122E-06  1.08514249E-03 -6.91198488E-03 -1.22198282E-02 -1.09891012E-02
  1.44161179E-03 -1.97987895E-03 -3.24518485E-03 -5.88460573E-03 -1.03382891E-02
 -1.10108066E-02  1.92363531E-03 -2.67346504E-03 -3.44398967E-03  8.29304467E-02
  1.65936814E-03  3.80711850E-03 -1.33764068E-02  1.61140639E-03 -9.11687566E-04
 -1.64177811E-02 -1.94766423E-02  1.33104602E-03 -4.32355264E-03 -1.30681815E-02
 -5.85827009E-04  6.64210005E-03  1.13182102E-02 -8.24259174E-04 -9.18633806E-03
  3.93910001E-03 -2.40594835E-03 -4.46049968E-03 -2.63619353E-02 -3.81216898E-02
  3.74656336E-02 -5.62413656E-02 -7.79460359E-02  9.08785288E-02  5.23363887E-02
 -8.12558278E-02 -1.11418537E-01  3.91181729E-02  3.56540063E-02 -5.56398020E-02
 -7.64776552E-02  4.69710684E-03 -4.66560012E-03  8.83530690E-03 -1.19834377E-03
 -3.75560259E-03  2.44058452E-03  3.35344670E-03 -5.67329527E-03  3.98886361E-04
  2.31620314E-04  6.84091915E-04 -1.42246664E-02 -2.26224326E-02 -1.54034138E-02
  1.94145835E-03 -2.03655416E-03 -4.36771086E-03 -1.00106819E-02 -1.63391782E-02
 -1.55568264E-02  2.88512858E-03 -3.89090049E-03 -4.28411799E-03  1.08994861E-01
  1.45420598E-01  4.32444685E-03  6.51452796E-03 -1.40550920E-02  7.29421504E-03
  4.41049425E-03 -1.80415076E-02 -2.11126481E-02  1.00158206E-02  5.50854285E-03
 -1.06856959E-02  1.21684403E-03  1.69112512E-03  1.02241915E-02 -2.75918487E-05
 -4.82246310E-03  4.92420326E-03 -4.60096738E-03 -3.15265974E-03  1.31801019E-03
  7.41047874E-04  1.97754336E-02 -2.47812564E-02 -3.40581510E-02  1.16889017E-03
  2.89489566E-02 -3.56011591E-02 -4.85198539E-02 -1.13211713E-02  1.91772672E-02
 -2.42119343E-02 -3.13817112E-02  2.14365029E-03 -2.39375746E-03  3.94515982E-03
 -9.02345699E-04 -2.17952140E-03 -3.16611346E-03 -7.34229930E-03 -5.93220540E-03
 -5.99652552E-04 -6.55314785E-04 -7.22328400E-04 -1.26369307E-02 -1.68644960E-02
 -6.79344835E-03  1.33994944E-03  3.30672618E-04 -1.99836383E-03 -1.08231073E-02
 -1.58482052E-02 -7.68738172E-03  2.20673212E-03 -2.26254873E-03 -7.21649760E-04
  4.18930598E-02  5.84687359E-02  3.01152955E-02  1.22391239E-03  1.87398890E-03
 -3.92189763E-03  6.28973296E-04  3.48340392E-04 -5.13377646E-03 -5.80814209E-03
  9.15392204E-04  6.54500580E-04 -3.39818759E-03 -1.92406198E-03  3.52482326E-04
 -2.23268177E-04  2.65778122E-05  3.86111343E-04 -4.39974891E-04 -8.69747825E-04
  4.97722366E-04  2.39275691E-03  3.07350741E-03  3.47775247E-03  2.32833959E-03
  3.56827701E-03 -6.32118337E-03  5.29296835E-03  3.37819103E-03  5.11149486E-03
 -3.75314498E-03  2.91786921E-03  2.16949120E-03  3.35659040E-03  1.09782589E-04
  1.83587957E-04 -3.87659927E-04 -4.75268888E-04  4.85017740E-05 -5.26995533E-04
 -1.26538405E-03 -1.48335954E-03 -3.44000750E-05  1.04775064E-04  1.16655816E-04
  1.52074810E-03  2.33320737E-03  1.97807503E-03  9.43368935E-05 -1.37301714E-05
  2.09996319E-04  1.86736255E-03  2.76124309E-03  2.09369234E-03  1.28041100E-04
  2.22407162E-04  2.23676654E-05 -3.48316426E-03 -4.59752221E-03 -1.46417851E-03
  5.02334018E-04 -1.80081016E-04 -9.39094089E-06 -6.77827944E-05 -3.21871068E-04
 -5.53897545E-04 -9.80975306E-04  1.40410960E-05 -4.00148364E-04 -1.02086462E-03
 -1.27670463E-03 -6.96939517E-04  7.11132919E-05  1.24396781E-04 -7.52216596E-05
 -4.69475607E-04  1.18782770E-04  1.77378798E-05  4.60526599E-04 -3.42162900E-03
 -4.26832781E-03  1.96848357E-03  2.38304005E-03 -4.60589089E-03  8.02842418E-03
  2.70273223E-03  3.51112992E-03 -6.62448281E-03  5.22077025E-03  1.73701493E-03
  2.52459354E-03 -4.60037329E-03 -1.77889603E-04 -2.24812459E-04  3.87175138E-04
 -3.60371128E-04  1.28661565E-04 -8.38454648E-05 -1.74290815E-04 -4.28416083E-04
  3.15177610E-05  5.21529271E-05  4.01973062E-05  4.33685619E-03  5.65107120E-03
  2.12634617E-03 -1.14282074E-04 -5.42237244E-04 -2.07307222E-04 -2.02861154E-03
 -3.09913046E-03 -2.14616540E-03  2.19215135E-04  7.16063340E-05 -8.94777723E-05
  4.25611793E-03  5.37120396E-03  1.64474737E-03 -1.69635612E-04  5.34743528E-04
 -5.05714412E-04 -4.20552646E-04 -5.02106708E-04 -2.42020758E-04 -1.77479664E-04
 -2.16792384E-04 -7.01366167E-04 -4.33736837E-04 -3.17363226E-04 -4.66784099E-04
  3.17821968E-04  6.22122848E-04  4.14925150E-06 -1.35337463E-04 -1.36171629E-04
  1.79420379E-04 -1.64514354E-04 -3.23888104E-04 -5.04157456E-03 -6.26033336E-03
  3.27879660E-03 -4.83046688E-03 -1.43049238E-03  1.16832618E-02  4.47488315E-03
 -6.99988898E-03 -2.00809517E-03  5.33869125E-03  3.30758467E-03 -4.88682485E-03
 -1.19477522E-03  5.11220289E-04 -7.20655725E-05  2.55699164E-04 -3.99182941E-06
 -2.92402763E-04  8.82539875E-05  1.72592945E-04 -5.21118124E-04  1.97457473E-05
  2.87638515E-05 -5.13925342E-05 -8.13580360E-04 -1.47306066E-03 -1.40592966E-03
  1.33966705E-04 -2.88628181E-04 -7.58087249E-05  3.87881345E-03  4.96034930E-03
  1.17428732E-03 -4.89954749E-05 -4.96570099E-05 -6.91916261E-04  6.56641018E-03
  8.62526761E-03  2.86710394E-03 -2.38064770E-04  2.70039917E-04  7.86936270E-04
  2.45398559E-03  3.49097639E-03  5.63543374E-03  9.78654055E-03 -5.01086376E-05
 -5.40823076E-03  9.44085400E-03  1.47076441E-02 -7.83745869E-05  8.68048732E-03
 -1.02226378E-02 -7.24838247E-03  1.02127656E-04  2.09820653E-03 -3.41175071E-05
  2.37164961E-05  7.19468977E-03 -4.08813870E-03 -1.69389517E-03 -2.59259057E-03
 -5.60997616E-03 -2.29513200E-03 -4.40519437E-05  6.84562744E-03 -6.81627359E-03
 -3.11698827E-03 -8.17451585E-05  1.87330699E-02 -7.91897104E-03  1.04085516E-03
 -3.89839626E-04  4.04337394E-04 -1.42801032E-05  7.41767560E-05 -2.72942381E-04
 -5.89829280E-04 -1.45719799E-02 -6.11465742E-03  1.67956385E-03 -5.68384519E-03
  1.56755654E-03 -3.11888156E-06 -2.40108507E-03 -6.55286200E-03 -4.18851585E-03
 -1.73254140E-04  5.67359793E-04 -8.67179201E-05  5.58189372E-04 -3.67366125E-04
 -1.80538779E-03 -1.36946028E-04 -2.45807202E-04  2.06500894E-04  8.00880618E-04
 -1.35825059E-04 -2.06249935E-03 -6.44809016E-05 -2.22944469E-04 -1.79607473E-04
  6.38881395E-01  3.76753915E-03  5.35319943E-03  9.19322834E-03  1.58449938E-02
 -8.50508646E-05 -8.32878165E-03  1.50446513E-02  2.30816556E-02 -1.29059688E-04
  1.23824242E-02 -1.44910794E-02 -8.22085126E-03  1.77240072E-04  3.38922211E-03
 -4.27072730E-05  3.67437113E-05  1.11484408E-02 -6.15788230E-03 -2.73665313E-03
 -4.24255189E-03 -9.10585240E-03 -3.74529739E-03 -7.71418342E-05  1.14365240E-02
 -1.17712403E-02 -5.23249705E-03 -1.34070239E-04  2.82625466E-02 -1.22477231E-02
  1.09416854E-03 -7.30575055E-04  5.59233659E-04 -2.39481081E-05  1.10031426E-04
 -1.76117985E-04 -8.11748333E-04 -2.31985425E-02 -9.23185024E-03  2.82640821E-03
 -8.48662327E-03  2.42264006E-03 -4.30790540E-06 -3.92257696E-03 -1.03255950E-02
 -6.96488407E-03 -2.06556843E-04  8.07490151E-04 -1.17329339E-04  8.30759198E-04
 -8.28138706E-06 -2.85727767E-03 -3.73350081E-04 -3.42013223E-04  2.04926024E-04
  1.26213246E-03  3.23208561E-04 -3.36008954E-03 -2.60609128E-04 -2.89991002E-04
 -1.70151291E-04  5.67752295E-01  5.21275974E-01 -7.08766035E-03 -1.10860933E-02
 -9.40915238E-03 -2.66625508E-02  9.07004893E-05  3.09667973E-02 -1.55606515E-02
 -3.92056550E-02  1.49289905E-04  1.78836385E-02  3.58478405E-03 -2.68763329E-02
 -4.61516774E-04 -3.16741698E-03 -4.37876193E-05 -1.20802729E-05 -1.70803640E-02
 -6.17805953E-03  4.20707665E-03  6.65257226E-03  1.10839052E-02  4.03310622E-03
  1.42363015E-04 -1.96695441E-02  1.63662660E-02  8.19479139E-03  1.16184842E-04
 -3.51673420E-02  1.60515855E-02  2.55966233E-03  1.45949272E-03 -1.71952286E-03
  2.15118317E-05 -2.36531111E-04 -1.26740326E-04  1.06166910E-03 -8.99187083E-02
 -1.24672439E-01 -3.07413164E-02 -1.60889717E-02 -2.00085088E-03 -4.42082901E-05
  5.92974454E-03  1.51226506E-02  1.26333131E-02  9.85281959E-04 -4.73574224E-04
  6.02794923E-05 -2.30666367E-03 -4.44140775E-03  3.12602625E-03  6.09409788E-04
  2.52250803E-04  1.04285351E-04 -3.17280074E-03 -5.23496491E-03  4.15424318E-03
  3.41253423E-04  7.63249930E-05 -1.74916089E-04 -6.02666919E-03 -9.44602752E-03
  1.25564639E-01 -1.95666076E-02 -3.10332301E-02 -3.22047180E-02 -6.26963638E-02
 -1.51505712E-04  9.16947263E-02 -5.00130671E-02 -9.23894401E-02 -2.09636635E-04
  2.94691506E-02 -2.68984324E-02  1.78932706E-02  4.59611458E-04 -4.74758869E-03
  1.17649275E-04 -8.44570581E-05 -6.06810047E-03  2.26398776E-02  2.57362572E-03
  3.97799719E-03  1.12801791E-02  1.24592146E-03 -1.15543102E-04 -1.03304729E-02
  1.16538471E-02 -1.10765705E-03  2.51118868E-05 -5.66455726E-03  1.60166320E-02
  3.27336581E-03 -1.06299660E-03 -3.33504460E-04  4.76142185E-05 -8.09287529E-05
  1.01933907E-03  3.84818510E-03  5.33668453E-03  2.20790426E-02 -2.00695591E-02
  2.77496822E-03  1.16359173E-02  3.22792241E-05  3.23011361E-03  6.67416814E-04
  1.07015162E-02 -6.38665752E-05 -5.74868067E-05  7.78387146E-05  2.00257722E-04
  5.36922120E-03 -3.26605354E-03  7.84819473E-04  2.51565049E-04 -6.48660148E-04
  1.41922150E-04  5.60007966E-03 -6.10667133E-03  9.92747249E-04  5.62348102E-04
  7.44036153E-04  9.08608008E-03  1.42035905E-02 -1.71249322E-02  1.47110046E-01
  7.99709075E-05  1.23414580E-04  2.65135849E-04 -6.94190330E-05  3.35174346E-02
 -2.91128391E-04  4.45068080E-04 -2.40902189E-05  4.97702129E-02  4.51911304E-06
  2.90281276E-04  4.08770400E-03  4.00454154E-02 -1.50610650E-04 -5.80544421E-03
 -2.48890906E-02  5.95885627E-05 -6.77510233E-05 -8.79351838E-05 -1.44518202E-04
 -1.65768530E-04 -2.98433126E-04 -9.05347724E-03  4.98473405E-04 -2.24878164E-04
 -5.68484354E-04 -1.28861697E-02  1.19775327E-03  5.02234550E-04 -6.42997555E-03
 -3.62836339E-02 -2.79740340E-04 -4.15415725E-03  1.04316491E-03 -1.94795823E-04
 -1.75216017E-04 -1.54639215E-05 -3.53224532E-05  2.75181064E-04 -8.02766391E-05
  2.67805313E-05  1.51559342E-02  5.89181526E-04  2.47686221E-03  2.83028033E-03
 -2.43940008E-04 -1.63229442E-04 -2.37635384E-04 -8.07789283E-03 -4.42177251E-03
  7.38813177E-03 -1.33813166E-03 -1.34096889E-04 -4.63487025E-04  7.29470816E-03
  9.33431266E-04 -1.14253518E-02  1.63063232E-03  9.52814454E-05 -6.90891479E-04
 -3.09749578E-05 -4.44523830E-05 -1.14178834E-04  2.76490309E-04  1.67785123E-01
 -9.02415762E-03 -1.30772167E-02 -2.80672315E-02 -4.67175595E-02  3.02104959E-04
  1.97527767E-02 -4.46057456E-02 -6.55907256E-02  4.49196234E-04 -3.27531183E-02
  3.50523698E-02  1.22217483E-02 -5.35586060E-04 -9.90471507E-03  8.40111295E-05
 -8.04077260E-05 -3.14362083E-02  1.65943356E-02  8.45798373E-03  1.32525353E-02
  2.80102026E-02  1.23424857E-02  3.17688552E-04 -3.64057302E-02  3.88506169E-02
  1.78445241E-02  4.96273966E-04 -7.68449505E-02  3.48404109E-02 -1.27322633E-04
  2.58835435E-03 -1.35765597E-03  7.67302182E-05 -3.23992466E-04 -5.90410101E-04
  1.97482836E-03  6.59432494E-02  2.32817203E-02 -9.12639980E-03  2.24514317E-02
 -6.83933046E-03 -7.35396215E-07  1.27597827E-02  3.11051504E-02  2.21324031E-02
  3.92961086E-04 -2.06787068E-03  2.81797287E-04 -2.48836804E-03 -2.39210402E-03
  8.19907125E-03  1.69155335E-03  8.79754497E-04 -1.15414445E-04 -4.12740193E-03
 -3.51535855E-03  9.91313531E-03  1.38133147E-03  6.46375897E-04  2.58174740E-05
 -1.30640681E-01 -2.20809245E-01  2.83027146E-02 -4.13267159E-02 -2.28881552E-06
  6.82038740E-01 -1.14652439E-02 -1.75296947E-02 -1.30962515E-02 -3.83622513E-02
  1.63903437E-04  4.79384456E-02 -2.16333522E-02 -5.64621874E-02  2.66311557E-04
  2.75914769E-02  4.70512855E-03 -4.02130759E-02 -6.20495243E-04 -4.56698438E-03
 -7.19628265E-05 -1.57953888E-05 -2.38989732E-02 -9.43501851E-03  5.48026966E-03
  8.88134834E-03  1.45695236E-02  5.78404229E-03  2.42655853E-04 -2.70346068E-02
  2.15475975E-02  1.18366339E-02  2.18295123E-04 -4.86080974E-02  2.17455234E-02
  4.10260195E-03  2.05492524E-03 -2.52331837E-03  2.74467025E-05 -3.47945976E-04
 -1.02439495E-04  1.53971940E-03 -1.30945510E-01 -1.80999926E-01 -4.38210384E-02
 -2.35078709E-02 -2.86341372E-03 -6.30481626E-05  8.39514662E-03  2.14604169E-02
  1.73531979E-02  1.42590253E-03 -6.56923329E-04  8.48237880E-05 -3.52454947E-03
 -6.78207062E-03  4.17465095E-03  7.78909758E-04  3.50419764E-04  1.83880873E-04
 -4.84103518E-03 -8.08927941E-03  5.58633724E-03  3.97853049E-04  8.19249432E-05
 -2.90188033E-04 -6.51867542E-03 -1.10543840E-02  1.82235016E-01 -2.52653790E-02
 -1.62306733E-04  3.63760026E-02  2.64600775E-01 -2.90276791E-02 -4.53914146E-02
 -4.77243930E-02 -8.96716087E-02 -2.01399911E-04  1.31895830E-01 -7.39140627E-02
 -1.32215912E-01 -2.78823330E-04  4.15255491E-02 -3.89467010E-02  2.48122341E-02
  6.43287643E-04 -6.95494600E-03  1.64257491E-04 -1.23529876E-04 -8.95156072E-03
  3.21483217E-02  3.39533883E-03  5.53625135E-03  1.72316589E-02  1.75478504E-03
 -1.53081264E-04 -1.53003070E-02  1.83018651E-02 -1.55184180E-03  5.49413133E-05
 -8.44314903E-03  2.38411731E-02  4.74746337E-03 -1.49057015E-03 -4.13248106E-04
  6.77448291E-05 -1.16944313E-04  1.33157283E-03  5.47459397E-03  7.24962030E-03
  3.02821350E-02 -2.90205380E-02  4.00547969E-03  1.65602282E-02  4.68847631E-05
  4.85873933E-03  1.43967267E-03  1.53671888E-02 -1.11936095E-05 -1.16370385E-04
  1.13898302E-04  5.53112426E-04  7.97677943E-03 -4.34864641E-03  1.16741094E-03
  3.67824101E-04 -9.55597949E-04  4.59578433E-04  8.27860496E-03 -8.37796304E-03
  1.45852095E-03  8.12242124E-04  1.08981164E-03  1.05891856E-02  1.71847838E-02
 -2.28732963E-02  2.09274147E-01  4.08297443E-04 -5.23871445E-02 -3.38078004E-02
  2.97819652E-01  1.23472819E-04  1.87170565E-04  4.23014441E-04 -1.32908015E-04
  5.03976549E-02 -4.36259731E-04  6.99469091E-04 -8.67116959E-05  7.49236678E-02
 -2.22006584E-05  4.61610947E-04  5.81950126E-03  6.01171046E-02 -2.00888595E-04
 -8.70302672E-03 -3.53530836E-02  8.42231454E-05 -8.53970153E-05 -1.19035577E-04
 -2.01816007E-04 -2.56801648E-04 -4.76990082E-04 -1.30446703E-02  7.16536298E-04
 -3.53158295E-04 -8.88120824E-04 -1.84999532E-02  1.69825813E-03  7.03503104E-04
 -9.18471175E-03 -5.22847572E-02 -4.08412643E-04 -6.16356969E-03  1.53409037E-03
 -2.77409108E-04 -2.50208953E-04 -1.28522714E-06 -9.21999106E-06  3.96249643E-04
 -1.11149254E-04  3.95099310E-05  2.18078989E-02  8.15094841E-04  3.48972354E-03
  4.02344644E-03 -3.45126983E-04 -2.28094282E-04 -3.36408943E-04 -1.17728814E-02
 -6.74069753E-03  1.01760517E-02 -1.91027027E-03 -1.97356237E-04 -6.65078366E-04
  1.06549705E-02  1.76360598E-03 -1.59436824E-02  2.32136582E-03  1.38131685E-04
 -9.85114285E-04 -3.82608359E-05 -5.31557029E-05 -1.95593089E-04  4.36481675E-04
  2.41250740E-01 -3.61626022E-05 -2.78233798E-04  6.40986244E-04  3.46977678E-01
  3.80798239E-03  1.07268400E-02 -2.06785829E-02 -9.99904114E-03  1.18623306E-04
 -5.87401028E-02 -3.53825620E-02 -1.18007811E-02  1.52518519E-04 -5.12019484E-02
  5.43153034E-02  2.05186735E-02 -1.38048114E-03 -6.24118019E-03  1.80847245E-04
 -4.22218099E-04 -4.32963548E-02  1.06827976E-02  1.17821212E-02  1.88809676E-02
  4.84412795E-02  1.36020759E-02 -8.40161960E-05 -5.42092556E-02  7.05970598E-02
  2.04905922E-02 -1.48612480E-04 -1.18851512E-01  5.86478371E-02 -4.33712223E-03
  4.02183411E-03 -1.17517022E-03  9.87393084E-05 -2.38388671E-04 -1.99721022E-03
 -4.84343556E-04  2.56328922E-02 -2.72771409E-02 -2.60993964E-02  1.21370303E-02
 -1.04182195E-02  1.52544045E-04  1.56140784E-02  3.78405262E-02  3.47041246E-02
  1.82202581E-04 -2.50836891E-03  2.86336261E-04  1.17689379E-03  2.72971797E-03
  1.57468466E-02  3.25000847E-03  1.04396910E-03 -5.87274616E-04  3.37948025E-04
  3.95422456E-03  1.94408929E-02  2.85350953E-03  9.54734889E-04  4.75542494E-04
 -1.28303585E-01 -1.99077082E-01  5.67944289E-02 -7.93383608E-02  2.17644315E-03
  5.59673882E-01  7.70705591E-02 -1.07851395E-01  3.06088564E-03  5.21830161E-01
  5.00873789E-05 -2.13748006E-04 -8.89265100E-03 -2.98955638E-02 -1.33927947E-04
 -2.48304867E-04 -1.40561454E-02 -4.33671105E-02 -2.07236494E-04  8.83704023E-04
 -3.85084091E-03 -2.68206979E-02 -4.93704395E-04 -2.47404844E-03 -8.13063881E-05
 -9.30039790E-05 -1.51386357E-02 -6.03348980E-03  4.74130971E-03  7.13146699E-03
  1.44313242E-02  7.28642220E-03 -2.60259116E-04 -1.99874678E-02  2.19519587E-02
  1.30242939E-02 -4.96813068E-04 -2.44641395E-02  1.38147052E-02  4.77746772E-03
  8.92484830E-04 -1.42989198E-03  1.33642410E-05 -2.68030508E-04 -1.38962308E-03
  1.53295712E-03 -8.29546597E-02 -1.16987157E-01 -2.66019633E-02 -1.44417372E-02
 -2.64859783E-03 -1.75386150E-05  9.91907191E-03  2.06011357E-02  1.55258033E-02
  1.18249421E-03 -6.97947453E-04  6.80731998E-05 -2.66774779E-03 -5.86782473E-03
  2.44825380E-03  7.68924612E-04  4.72206020E-04  2.60509275E-04 -3.40890415E-03
 -6.73696922E-03  3.38605452E-03  4.84685983E-04  2.61180936E-04 -3.73430978E-04
 -1.07315644E-02 -1.67238591E-02  1.20353881E-01 -2.63506408E-02  7.60989930E-05
  4.88573912E-02  1.74501541E-01 -3.58826220E-02  6.90323208E-05  7.30048816E-02
  1.19227241E-01 -2.12862622E-02 -3.16461633E-02 -2.89616795E-02 -6.62405685E-02
 -2.32029345E-04  8.70367957E-02 -4.61854425E-02 -9.73480084E-02 -3.28505548E-04
  2.94953171E-02 -2.50017836E-02  3.31316950E-02  5.89221277E-04 -4.27670984E-03
  1.75722406E-04 -1.51827480E-04 -6.97492833E-03  2.89349409E-02  1.97498148E-03
  3.17948568E-03  1.23544832E-02 -8.38788916E-04 -3.68505290E-04 -8.39942129E-03
  1.21535596E-02 -5.36277759E-03 -2.79406357E-04 -9.40637087E-03  1.87899627E-02
 -6.11869182E-04 -1.32141709E-03 -2.18949446E-04  5.08676330E-05  1.91724725E-05
  1.68203209E-03  4.09893289E-03  2.05488401E-02  4.74704577E-02 -2.07217544E-02
  5.32376475E-03  1.37343833E-02  8.34148220E-05  1.55032623E-03 -3.24900693E-03
  1.31220888E-02 -6.03307306E-04 -1.82896757E-05  7.44964403E-05  1.60762284E-03
  8.91385643E-03 -3.53285393E-03  9.36500409E-04  2.44669038E-04 -1.02582238E-03
  2.27015744E-03  1.04705045E-02 -6.62823925E-03  1.20154799E-03  7.48073361E-04
  1.17828052E-03  1.26398449E-02  2.26051190E-02 -4.45015089E-02  1.76686121E-01
  8.10123551E-04 -7.52976853E-02 -6.53789853E-02  2.50626954E-01  1.22109199E-03
 -1.10801438E-01 -5.52594598E-02  2.20935896E-01  6.51866794E-05  1.00997450E-04
  2.62980212E-04  7.20901572E-05  3.48283333E-02 -2.02888725E-04  4.59350924E-04
  2.37530809E-04  5.11417864E-02  2.71075785E-04  3.27148641E-04  6.34216975E-03
  4.23980204E-02 -3.10778298E-04 -6.34513981E-03 -3.81811925E-02  4.43221836E-05
 -1.45420734E-04 -1.20641276E-04 -1.90350850E-04 -2.06004992E-04 -3.48432446E-04
 -1.41010180E-02  6.53626712E-04 -2.74454771E-04 -6.96608508E-04 -2.04856543E-02
  1.63044329E-03  8.08705186E-04 -9.79201193E-03 -5.25802118E-02 -3.89046301E-04
 -4.88936768E-03  1.41849653E-03 -2.78377719E-04 -2.72186109E-04 -7.35861062E-05
 -1.79154328E-04  3.75982505E-04 -1.29343419E-04  3.45302155E-05  2.16279548E-02
  9.09010077E-04  3.80435113E-03  4.30794601E-03 -3.88549165E-04 -2.67533405E-04
 -4.44568411E-04 -1.15701257E-02 -5.31856314E-03  1.26651847E-02 -1.94430073E-03
 -2.30356192E-04 -6.32647209E-04  1.03907242E-02  1.12080617E-04 -1.86684465E-02
  2.41235687E-03  1.91658893E-04 -1.00852875E-03 -7.14507100E-05 -1.14487156E-04
 -7.70985305E-05  2.99643744E-04  2.40372316E-01  1.58041554E-04 -1.16942374E-04
  4.51466993E-04  3.45066017E-01  3.54006202E-03  2.28540577E-04  1.05207281E-03
  3.47654977E-01  1.78696556E-03  2.37713293E-03  9.04680984E-04  2.51586000E-03
  7.45830576E-07 -5.39276538E-03  1.35332991E-03  3.71479109E-03  2.02248120E-06
 -1.44938269E-03  8.81691927E-04 -7.81912598E-04 -4.16665678E-05  2.56814639E-04
  2.44935348E-07  1.06794006E-05 -3.11771412E-04 -9.05217378E-04  2.77105359E-04
  3.72961551E-04  5.54103294E-04  5.18925447E-04  1.91813535E-05 -8.93445391E-04
  1.04833235E-03  9.00705815E-04  1.61764789E-05 -1.28043010E-03  4.19838443E-04
  3.37167700E-04  1.21356186E-04 -2.45508580E-05  1.91066043E-06 -1.11338222E-05
 -1.39364071E-04 -1.38564550E-04 -3.08094328E-03 -4.24983333E-03 -4.27687982E-04
 -7.32643010E-04 -4.29595133E-04 -6.84141332E-06  4.28538038E-04  8.35621788E-04
  4.94827004E-04  9.30988859E-06 -2.57237324E-05  2.12596299E-06 -9.84289076E-05
 -3.19491057E-04  2.46793715E-04  5.26621280E-05  1.85351441E-05  3.85570819E-05
 -1.79013480E-04 -3.82277010E-04  3.66104517E-04  4.49550294E-05 -3.88023347E-07
 -4.79814568E-05  9.29191005E-04  1.59044745E-03  3.21299185E-03 -5.36362897E-03
 -5.33890399E-05 -4.87254169E-03  4.67101783E-03 -7.67654303E-03 -7.86332150E-05
 -2.93879357E-04  3.24990653E-03 -6.42933549E-03 -7.10113240E-05  3.66314074E-04
  1.68534712E-06  1.73352040E-06 -6.57648643E-06  1.43045958E-05  4.22016236E-04
 -3.98656395E-06 -1.11458644E-05  1.73338263E-05  6.90921199E-04 -7.69144662E-06
  2.03340048E-05 -8.95882265E-05  3.51255572E-04  8.53788617E-06  2.02058934E-05
  5.61736037E-04 -5.24060338E-06  6.81876194E-06  6.68564737E-06  1.05102823E-05
  6.67323502E-06  1.97882098E-05  8.10083703E-04 -2.98983361E-05  1.11819431E-05
  2.77892013E-05  1.19028032E-03 -5.99007389E-05  1.84573472E-06  1.53531224E-04
  1.21603427E-03  1.56235463E-05  2.46765002E-05 -6.73164972E-05  9.46040879E-06
  4.50583518E-06  1.69360474E-05  1.70897646E-05 -8.56421734E-06  4.86746870E-06
 -1.09797136E-06 -2.46393421E-04 -3.94892101E-05 -8.94476734E-05 -7.65950486E-05
  7.06334384E-06  8.66877250E-06  4.34054239E-05  5.59284111E-04  5.86674704E-04
  4.54297405E-06 -1.63299927E-06  3.00085178E-05 -1.39286273E-05 -5.19153918E-04
 -4.70752981E-04  1.07652328E-04 -5.58594829E-06 -3.63787733E-05  1.67767121E-06
 -6.23408877E-06 -1.01568204E-05 -1.81424199E-05 -5.81621057E-06 -2.74625494E-03
  3.33298563E-05 -2.62543190E-05 -8.48735579E-06 -3.91130263E-03 -1.54775590E-05
 -2.69360913E-05 -1.23446618E-05 -4.16526356E-03  6.42366263E-07  6.51337488E-05
  1.49406317E-05  2.28361353E-05  2.03895474E-05  2.05302620E-05  4.70430298E-03
 -5.99261095E-05  3.50699969E-05  2.79730959E-05  7.10871684E-03 -5.29159104E-05
  5.75655673E-05  1.40147848E-04  5.43196893E-03  9.87548384E-06 -7.30988176E-04
 -9.94896371E-04  3.01218397E-06 -5.89182921E-06 -5.56456169E-06 -7.83971876E-06
  1.02160110E-06 -2.19925778E-05 -1.49064061E-04  2.10930369E-05  4.80792924E-06
 -3.96156169E-05 -1.25811878E-04  4.44237636E-05  3.76783846E-05 -2.59873105E-04
 -1.89690608E-03 -1.55818910E-05 -4.56436847E-04  6.21982635E-05 -1.18022706E-05
 -9.58964767E-06 -9.34623196E-06 -1.46577077E-05  1.06986246E-05 -6.51205386E-06
 -2.42275069E-06  9.29165507E-04  2.08254782E-05  9.93852670E-05  1.17312770E-04
 -6.35152745E-06 -2.69925613E-06  1.60585411E-05 -3.63077149E-04 -3.03036983E-04
  1.08693473E-04 -8.12243351E-05  7.01547910E-06 -3.97775681E-05  3.36549157E-04
  1.49851693E-04 -2.82718297E-04  9.15325321E-05 -1.43168035E-05 -4.11046430E-05
  2.36804448E-06  4.25082583E-06 -1.55394120E-06 -2.54780071E-05  1.01104022E-02
 -1.75720595E-05 -2.45376077E-07 -3.55448782E-05  1.46491494E-02  9.95133320E-05
 -2.03393355E-07 -5.13370279E-06  1.38176680E-02 -1.11390256E-06 -1.17565511E-04
  7.44610310E-04  2.30287013E-03  3.41167130E-03  5.54097744E-03  4.59044389E-03
 -4.87441793E-06 -9.39378471E-03  8.24814343E-03  6.94687174E-03 -5.66345321E-06
 -2.60872181E-03  3.55951039E-03  1.51488786E-03  1.08081795E-05  5.67168989E-04
  1.64343008E-06  2.29269533E-07  9.72676704E-04 -7.67643104E-04 -5.84413917E-04
 -9.48958172E-04 -2.66570327E-03 -5.61241203E-04 -9.48794559E-06  2.76198632E-03
 -3.67333145E-03 -8.20861541E-04 -2.22061642E-05  1.41051035E-03 -2.83896991E-03
 -1.18339703E-03  2.51978938E-05 -8.46552626E-06 -3.74759453E-06  2.42001200E-05
  1.82639876E-04 -2.52298486E-04  5.18553306E-03  6.12051443E-03  3.18102227E-03
  8.20464921E-04 -8.05949584E-04  4.19627172E-06 -9.37804978E-04 -1.29425350E-03
 -1.13646031E-03 -1.62017039E-04  3.59391002E-05 -8.10343537E-06 -5.09228320E-05
 -2.85683904E-04 -1.59387726E-04 -1.59201786E-04 -3.30157936E-05  2.77288331E-05
  4.42860420E-05 -1.60851815E-04  5.41407983E-07 -1.63947281E-04 -3.75820999E-05
 -2.72008738E-05 -6.83925112E-04 -1.21244960E-03 -5.92479865E-03 -9.28919714E-03
  2.68436559E-05  3.90104945E-03 -8.63135074E-03 -1.33413488E-02  3.97102954E-05
  5.21497269E-03 -4.89247136E-03 -9.37854983E-03  3.72521812E-05  1.85315819E-04
  8.78077367E-07  3.82151850E-06  1.12946111E-03 -1.47641020E-03 -1.99297092E-03
  1.95755391E-03 -3.10985353E-03  4.97167490E-06  4.46910236E-03  2.76854911E-03
 -4.46226209E-03  1.03170641E-05  2.71212114E-03  1.30769973E-03 -1.86457924E-03
  1.06496685E-05 -2.47477378E-04 -5.46125141E-06 -5.18666364E-06 -6.16698695E-04
 -3.53503887E-04 -3.82645985E-04 -5.06733965E-04 -1.81900106E-03 -5.82938665E-05
  1.26627289E-05  1.07236859E-03 -2.74899161E-03  4.05086719E-05  1.09877419E-05
 -5.06182454E-04 -1.27569639E-03 -2.42685606E-04  3.21202537E-05 -2.36571441E-04
 -1.09867632E-06 -1.32927570E-05  2.76581645E-04  1.63267895E-04 -4.48383843E-03
 -6.42995325E-03 -8.28293101E-04 -7.27908667E-04 -2.29426372E-04  2.67555548E-07
 -1.40564460E-04  2.42406928E-04  6.57004541E-05 -1.86729936E-05 -5.49214686E-06
  1.60681667E-06 -4.66698810E-04 -7.76783528E-04 -3.28808343E-04 -1.32357857E-04
  2.54681874E-07  2.76469030E-05 -5.11740464E-04 -8.73337161E-04 -3.11343586E-04
 -1.51561444E-04 -1.70034083E-05 -3.15542552E-05 -1.39789650E-03 -2.33872815E-03
  7.69095611E-03 -1.89456030E-03  6.10129117E-06  7.19453947E-03  1.11908547E-02
 -2.58222461E-03  8.22403991E-06  6.48979457E-03  7.60145177E-03 -4.05536508E-03
  6.99031982E-06  1.15370985E-04 -1.40267012E-06  7.86679156E-07 -2.25175528E-04
  6.49193288E-04  3.40870918E-03  4.85944411E-03  7.59957952E-03 -1.02007400E-02
 -2.16505356E-04 -7.43355313E-03  9.87787463E-03 -1.31082867E-02 -2.75179061E-04
  1.43351899E-02  1.65398695E-03  1.91794875E-03  9.89315448E-05  2.47087777E-03
  1.04056877E-04 -1.63872166E-04  2.65161214E-03  6.29913450E-03 -8.87064820E-04
 -1.31277434E-03 -2.85198128E-03  2.02263192E-03  1.53220088E-06  3.68703731E-03
 -3.80906321E-03  2.29926114E-03 -8.26055753E-05 -8.32926122E-04  1.21870090E-03
  3.40811284E-03 -2.91392628E-04 -2.93840717E-04 -3.59722515E-06 -1.44310173E-05
 -1.26031043E-05  6.76228173E-04  1.31114486E-03  2.31106908E-03 -1.69226090E-03
  4.36894948E-04  6.09971824E-05  7.05448680E-06  1.01105088E-03  1.46721937E-03
 -3.28770783E-03 -7.48156727E-05 -9.33361683E-05  5.12728914E-06 -7.72701747E-04
 -6.60179893E-04 -6.93441996E-04 -2.25037161E-04  1.65221801E-04  9.86880975E-05
 -1.01071635E-03 -1.20115652E-03 -6.78580963E-04 -1.53240934E-04  1.20411987E-04
 -1.81850687E-04 -1.62105833E-04 -1.88577819E-04 -2.13579516E-03  4.10330495E-03
  7.62220409E-05  1.73890493E-04 -3.02543607E-03  5.22410402E-03  1.14925271E-04
 -2.62944727E-03 -3.23133508E-03  4.01923517E-03  9.54074771E-05 -1.34121935E-04
 -6.74222809E-06 -6.00009070E-06  2.08809789E-04  1.43155585E-04  6.39482256E-01
  5.33887829E-03  7.41707455E-03  1.23109008E-02 -1.63384416E-02 -3.47739004E-04
 -1.11973090E-02  1.51178278E-02 -1.98229115E-02 -4.22065207E-04  2.11010248E-02
  5.73467540E-03 -5.33477259E-04  8.57847769E-05  3.74893757E-03  1.55805071E-04
 -2.43801106E-04  3.88635319E-03  9.18608477E-03 -1.41546622E-03 -2.16613069E-03
 -4.65847215E-03  3.23213753E-03 -9.29434383E-06  6.18509621E-03 -6.69808660E-03
  3.93182823E-03 -1.19492416E-04 -2.84094742E-03  2.41935669E-03  6.65227878E-03
 -4.67691822E-04 -5.20641001E-04 -4.56872787E-06 -3.52157236E-05  2.13175261E-04
  8.39772780E-04  2.07875199E-03  3.10129867E-03 -2.52496059E-03  5.73216531E-04
  1.78431474E-04  6.52221705E-06  1.68160844E-03  2.22195587E-03 -5.55943130E-03
 -1.76714859E-04 -1.94395312E-04  5.61868071E-06 -1.28239892E-03 -9.53557244E-04
 -1.02350608E-03 -3.38518115E-04  2.05377651E-04  9.04444869E-05 -1.64609662E-03
 -1.75043350E-03 -1.00366352E-03 -2.18269563E-04  1.49761649E-04 -2.00370413E-04
 -1.85228237E-04 -2.59018030E-04 -3.41484940E-03  6.49516075E-03  1.16471556E-04
  3.68238308E-04 -4.67233678E-03  8.51580768E-03  1.67854078E-04 -4.58069917E-03
 -6.28861859E-03  6.70187763E-03  1.66988707E-04 -2.80637427E-04 -8.33310918E-06
 -8.51142554E-06  2.00920599E-04  2.18038509E-04  5.68711910E-01  5.22794073E-01
 -1.37985665E-02 -2.14534210E-02 -1.33785860E-02  5.39542789E-02  1.57635001E-03
  6.23711579E-02 -2.58895018E-02  7.66796818E-02  2.37843435E-03  3.68067922E-02
  6.80507149E-02  3.43400388E-02 -3.23361349E-06 -2.61983329E-03  9.27797728E-05
  5.95497980E-04 -3.10816357E-02  5.78502014E-03  7.53863851E-03  1.18943031E-02
  2.26792456E-02 -7.37185599E-03  3.87521357E-05 -3.30351595E-02  3.06204914E-02
 -1.19257171E-02  2.69870074E-04 -1.24931115E-01  5.49810710E-02 -1.31758280E-02
  3.74838612E-03 -8.23774563E-04 -2.18034435E-05  3.27676229E-04  3.65053014E-03
 -4.80776813E-03 -3.73845580E-03 -1.75216985E-02 -3.34356552E-02 -1.59565850E-03
 -1.20476465E-03 -1.05499061E-04 -9.76968788E-03 -8.46694898E-03  8.97176550E-03
 -1.58706144E-03 -3.24580385E-04  1.69077050E-05  5.11287399E-03  1.35849558E-02
  1.37908894E-02  2.27717918E-03 -5.19673698E-04 -1.39039486E-03  7.10610280E-03
  2.00139238E-02  1.85885260E-02  2.11847492E-03 -1.21573837E-05  1.66426161E-03
 -4.81991951E-03 -7.78072398E-03 -1.78229027E-03  1.28965925E-02 -4.41830260E-04
  2.23366809E-02 -4.81663210E-03  1.80517792E-02 -5.77430828E-04  7.62681297E-02
 -1.69053022E-02  2.93128114E-02 -7.32256821E-04  8.44979230E-04  5.59838151E-05
  4.54955755E-05  1.49214680E-05 -2.42829481E-03  5.83711551E-03  9.12605134E-03
  1.62502624E-01  2.31040823E-02  3.65450464E-02  5.22474368E-02 -5.02376389E-02
 -1.79769761E-03 -1.12064871E-01  7.22716845E-02 -6.88813157E-02 -2.61016248E-03
 -3.22925973E-02  2.21375514E-02  4.59863399E-02 -1.21760899E-03  2.42993201E-03
  5.45147716E-04 -4.01090696E-04 -1.66965928E-02  1.87727488E-02  4.54985345E-04
  7.66431996E-04 -1.36410151E-03 -1.40214367E-03  3.33799093E-04 -2.49520255E-03
 -4.05966573E-03 -4.67642584E-03  4.58966976E-04 -2.88441946E-02 -2.02803892E-03
 -2.10225254E-02  2.13158785E-03 -1.91146785E-03  2.26936288E-04 -2.65305875E-05
  2.49987172E-03  3.36278230E-03  7.21696490E-03  1.48220566E-02 -9.59011945E-03
  1.90687902E-03 -2.39233143E-04  4.77675625E-05 -5.75092636E-04  2.35120630E-03
  2.75407476E-02 -2.03042558E-03 -2.39577945E-04  1.31067399E-04 -3.17457948E-04
  1.68297644E-03 -1.85980447E-03  1.23203844E-04  5.45540631E-04 -6.23984137E-04
 -7.15971758E-04  2.58153665E-03 -3.12256968E-03  7.46193607E-05  7.71312778E-04
  6.36019365E-04 -4.80928557E-03 -7.72727794E-03 -4.46381765E-03  3.18973758E-02
  5.76041347E-04  2.28314911E-02 -9.12717160E-03  4.38902527E-02  8.31921425E-04
  4.95780356E-02  1.35932540E-03  5.55920011E-02  1.06231069E-03 -1.61059537E-04
 -2.68135544E-05 -5.31908191E-05  1.94960033E-03  2.16756006E-04 -9.62332739E-03
 -1.51601947E-02  1.95061469E-02  1.47170617E-01  5.57170953E-04  8.85678304E-04
  1.36403056E-03 -1.83117861E-03  6.89019516E-02 -2.65649699E-03  2.03819978E-03
 -2.73224216E-03  1.04973797E-01 -2.55402888E-03  1.60321758E-04 -3.76732446E-03
  8.06946317E-02  6.27666949E-04 -1.22887064E-02  2.13431719E-02  2.24015088E-04
  5.42875878E-04 -1.26842717E-04 -1.92118879E-04 -3.81417334E-04  5.07278785E-04
 -9.22267659E-03  4.00324115E-04 -6.15215839E-04  8.27976013E-04 -1.09314109E-02
  1.08216033E-03 -1.18375832E-03  6.03957042E-03 -6.03141768E-03 -5.10020630E-04
 -6.28619804E-03  1.89150022E-03 -2.13361239E-04  2.50403489E-04  2.81689745E-04
  7.96918578E-04  1.32395865E-04  1.26741863E-04 -4.00621596E-06 -2.84588559E-03
  1.40254752E-03  5.12952938E-04 -7.42481302E-04  2.05518716E-04  5.07362744E-05
 -3.12415821E-04 -1.19942972E-02 -2.39485478E-02 -2.27122617E-02  1.29465806E-03
 -4.53665132E-04  5.98969545E-04  1.03266048E-02  2.26611513E-02  2.32547639E-02
 -1.59133446E-03  6.44882055E-04  5.10353214E-04  3.77560396E-05  5.85853600E-05
 -2.18546511E-04  4.74554802E-04 -3.85108572E-02 -6.01425912E-05 -2.81400558E-04
  6.39637251E-04 -5.20475164E-02 -2.14379991E-03 -1.71177930E-04  4.53867572E-04
 -7.46451982E-02 -1.56595691E-05  1.87339924E-03  1.58655238E-03  2.76232281E-05
  5.20233169E-05 -2.02311454E-04 -3.11625844E-04 -2.36070338E-04 -2.79540689E-04
  1.27824905E-01 -1.30754730E-02 -1.76590049E-02 -3.58457665E-02  4.48456069E-02
  9.61162332E-04  2.40639865E-02 -4.11410539E-02  5.00658130E-02  1.09290303E-03
 -5.74769556E-02 -2.78273263E-02  1.45721146E-02 -3.94669761E-05 -1.00465196E-02
 -3.91241609E-04  6.02138368E-04 -1.04015287E-02 -2.30626971E-02  4.36648925E-03
  6.93059119E-03  1.48941352E-02 -1.02093601E-02  1.54714865E-04 -2.00794747E-02
  2.30103365E-02 -1.35506381E-02  4.33439614E-04  1.29726165E-02 -8.14547915E-03
 -2.46377980E-02  1.46977966E-03  1.79084121E-03  1.77826501E-05  1.52131222E-04
 -1.47987652E-03 -1.51586742E-03 -5.78498267E-03 -6.58223832E-03  6.37583952E-03
 -1.15185121E-03 -7.24478365E-04  9.28665649E-06 -5.60965882E-03 -6.65023728E-03
  1.76370762E-02  7.61493278E-04  7.67574693E-04 -6.86504330E-06  4.32708827E-03
  3.08457274E-03  2.98721276E-03  9.48475548E-04 -4.12474230E-04 -9.03339707E-05
  5.29141469E-03  5.11326693E-03  2.82662706E-03  5.85097687E-04 -2.93903929E-04
  3.35126330E-04  1.90092416E-05  2.05036918E-04  9.86257772E-03 -1.71667688E-02
 -1.79295991E-04 -2.72550366E-04  1.28634154E-02 -2.31985944E-02 -2.33028347E-04
  1.58295872E-02  2.22887887E-02 -1.83232139E-02 -3.19838627E-04  1.00340862E-03
  1.29017771E-05  2.54484363E-05 -1.50933131E-04 -5.96215329E-04 -1.32416554E-01
 -2.23778220E-01 -2.67010509E-02  4.71399220E-02  7.77309763E-04  6.87935355E-01
 -2.14861148E-02 -3.20429226E-02 -1.67202243E-02  7.51600355E-02  2.26255464E-03
  8.84194910E-02 -3.33892367E-02  1.06791457E-01  3.41654758E-03  5.23477633E-02
  9.68760507E-02  5.01422431E-02  7.28136880E-05 -3.70504047E-03  1.35532735E-04
  8.34894126E-04 -4.37776982E-02  8.76990057E-03  9.73997825E-03  1.57285533E-02
  3.05670854E-02 -1.02788855E-02  1.06233844E-04 -4.47754097E-02  4.09373790E-02
 -1.67811534E-02  4.59150463E-04 -1.75372195E-01  7.63165174E-02 -1.88819396E-02
  5.30754975E-03 -1.27877809E-03 -2.98763639E-05  4.54827356E-04  5.37217957E-03
 -6.67048652E-03 -3.17537438E-03 -2.14414524E-02 -4.65531618E-02 -1.86183033E-03
 -1.57954847E-03 -1.40507514E-04 -1.37784133E-02 -1.20930079E-02  1.29904045E-02
 -2.37697916E-03 -4.80965726E-04  3.22826349E-05  7.08595963E-03  1.90823257E-02
  1.90086145E-02  3.12902810E-03 -7.08468551E-04 -1.97764961E-03  9.81328299E-03
  2.80569101E-02  2.56363203E-02  2.91746618E-03  9.61150225E-06  2.35986083E-03
 -6.96169727E-03 -1.10139592E-02 -5.28560296E-03  2.04105846E-02 -5.44125966E-04
  3.08216426E-02 -1.08545573E-02  2.85510761E-02 -6.96694499E-04  1.06216623E-01
 -2.65161573E-02  4.48724605E-02 -9.34388351E-04  1.06182184E-03  7.91172747E-05
  6.99910489E-05  1.28515650E-04 -3.54535982E-03  7.11886860E-03  1.13344766E-02
  2.29432905E-01  3.12703648E-02 -2.43472083E-04 -3.39577449E-02  3.24141330E-01
  3.41243786E-02  5.23343840E-02  7.40411347E-02 -6.83329720E-02 -2.55820031E-03
 -1.54809758E-01  1.02281332E-01 -9.34703834E-02 -3.71666517E-03 -4.29427417E-02
  3.35563917E-02  6.47709688E-02 -1.78485835E-03  3.48812968E-03  7.73605406E-04
 -5.72254242E-04 -2.37177334E-02  2.60645055E-02  9.81656463E-04  1.37280816E-03
 -2.47024392E-03 -3.32412108E-03  4.21857666E-04 -3.54799458E-03 -6.52667892E-03
 -8.53782365E-03  5.80934251E-04 -4.32747960E-02 -2.27406524E-03 -3.07490507E-02
  3.01154083E-03 -2.65097919E-03  3.17116531E-04  9.87923935E-07  3.74291609E-03
  4.48012942E-03  9.81952965E-03  2.02628450E-02 -1.37780747E-02  2.51031189E-03
 -4.71788432E-04  6.95834059E-05 -2.25192381E-03  1.38723112E-03  3.75097069E-02
 -2.87397983E-03 -2.52090695E-04  1.67929270E-04 -1.67437540E-04  2.90017210E-03
 -2.17170785E-03  1.44392186E-04  6.79441838E-04 -9.24634638E-04 -4.83342620E-04
  4.52708940E-03 -3.73698857E-03  6.49715118E-05  1.02364100E-03  9.61922485E-04
 -5.99038724E-03 -9.81012494E-03 -6.41811823E-03  4.35236588E-02  8.57467000E-04
  2.95956928E-02 -1.30174706E-02  5.97820172E-02  1.23621008E-03  6.88237878E-02
  1.13899637E-03  7.68610220E-02  1.57858048E-03 -1.46972668E-04 -3.92764617E-05
 -7.36070912E-05  2.83613409E-03  2.57478680E-04 -1.14627552E-02 -1.84808291E-02
  3.13007872E-02  2.05111121E-01 -5.51857036E-04  5.95632564E-02  4.93544016E-02
  2.86072768E-01  8.13089363E-04  1.25952984E-03  1.96174713E-03 -2.56147939E-03
  1.00581718E-01 -3.66453923E-03  2.93247218E-03 -3.82679979E-03  1.53249566E-01
 -3.58088489E-03  2.88325213E-04 -5.43499681E-03  1.17654590E-01  9.05188103E-04
 -1.78201646E-02  3.04186765E-02  3.32770027E-04  7.57767648E-04 -1.67010603E-04
 -2.64909687E-04 -5.86508118E-04  7.39661846E-04 -1.26010006E-02  5.86246900E-04
 -9.35850232E-04  1.20329431E-03 -1.47402500E-02  1.53580239E-03 -1.70061067E-03
  8.64253818E-03 -8.50481590E-03 -7.25228075E-04 -9.14069177E-03  2.67228371E-03
 -2.98657843E-04  3.54556225E-04  3.60370101E-04  1.07561124E-03  1.94437936E-04
  1.70469033E-04 -1.07198917E-05 -3.84022853E-03  1.97849227E-03  7.06168451E-04
 -1.09582743E-03  2.95140898E-04  7.80458080E-05 -4.05766806E-04 -1.68485155E-02
 -3.38510824E-02 -3.23361763E-02  1.80649071E-03 -6.21480757E-04  8.28232805E-04
  1.44592373E-02  3.19884914E-02  3.31012429E-02 -2.23568109E-03  8.84532597E-04
  7.08713896E-04  7.42100893E-05  1.06908470E-04 -2.64210854E-04  6.02063423E-04
 -5.25900838E-02 -1.22210498E-04 -3.27855246E-04  8.06510411E-04 -7.07995278E-02
 -3.08666393E-03 -2.15083406E-04  5.40475170E-04 -1.03565843E-01 -1.98272623E-05
  2.66882886E-03  2.49575912E-03  4.01591777E-05  7.84853218E-05 -2.44135783E-04
 -3.79405718E-04 -2.97602809E-04 -5.74986983E-04  1.84322603E-01  9.35618544E-04
 -2.94214997E-04 -1.03173087E-03  2.65857660E-01  9.19954338E-04  9.04478712E-03
 -4.12367661E-03  9.56272562E-03  6.30028980E-04 -6.72975025E-02  3.21929097E-03
  4.50013262E-03  7.20481447E-04 -7.80325965E-02 -2.92886906E-02  1.32368526E-02
  5.32723455E-04 -5.48323510E-03 -3.83874203E-04  9.24291427E-04 -7.33943792E-03
 -1.72247369E-02  1.25757811E-03  2.32681236E-03  1.05791645E-02 -8.23570789E-03
 -3.60914612E-04 -8.59974003E-03  1.73862847E-02 -1.07582622E-02 -4.00531027E-04
  3.06566339E-02 -1.84351379E-02 -2.58579960E-02  1.19565717E-03  1.34404311E-03
 -8.79884631E-06  1.43358492E-04 -2.10930253E-03  6.37054460E-04 -1.04537040E-02
 -1.22462897E-02  9.88771124E-03 -1.64548754E-03 -2.81065889E-03 -1.96749291E-04
 -1.66117129E-03 -6.81742260E-05  2.16576782E-02  7.10169326E-04  4.46998175E-04
 -1.69361924E-06  3.71229482E-03  3.66705102E-04 -1.07008079E-04  4.16260923E-04
 -8.90224078E-06 -8.75770602E-05  5.03688769E-03  2.77038521E-03  5.02935898E-04
 -8.03858300E-05  1.04838716E-04  2.55896947E-04 -3.33127098E-03 -6.14085608E-03
  2.28953350E-02 -3.54891718E-02 -2.70058401E-03  2.19664392E-02  3.16366616E-02
 -4.97078901E-02 -3.82195886E-03  4.03487137E-02  4.08697765E-02 -4.06221439E-02
 -4.16333174E-03  1.84918121E-03  5.18444759E-05 -1.00723621E-04  1.76355601E-03
  1.33633049E-03 -1.30921799E-01 -2.02316198E-01 -6.01336259E-02  8.13166020E-02
  3.58914844E-03  5.63865667E-01 -8.13772680E-02  1.07481106E-01  4.92910179E-03
  4.96534677E-01 -1.05737075E-02 -1.55227404E-02 -2.12344123E-02  5.73665113E-02
  1.92314665E-03  4.27140480E-02 -4.01076995E-02  8.22494886E-02  2.92521218E-03
  3.15646743E-02  8.15092029E-02  4.86595983E-02  3.15926236E-05 -2.56066236E-03
  1.37786369E-04  8.67417614E-04 -4.33787073E-02  1.10939144E-02  1.15859099E-02
  1.83853703E-02  4.16630997E-02 -1.10642604E-02 -2.38163963E-04 -5.16550766E-02
  5.78304048E-02 -1.78650631E-02 -4.86681910E-05 -1.66553089E-01  7.99998677E-02
 -2.06662818E-02  5.02270115E-03 -3.82140640E-04 -2.80164194E-05  4.96107108E-04
  3.45843558E-03 -5.68565967E-03 -7.70740364E-03 -2.65804006E-02 -4.83939010E-02
 -2.24456638E-03 -1.19842591E-03 -1.93976103E-04 -1.14719023E-02 -8.64221691E-03
  1.71942977E-02 -1.58718096E-03 -4.95509073E-04  1.83188391E-05  9.20289579E-03
  2.11794753E-02  2.00165377E-02  3.61290200E-03 -5.77767410E-04 -2.13916447E-03
  1.24327995E-02  3.06642755E-02  2.67544893E-02  3.33138103E-03  2.06741938E-04
  2.52195892E-03 -6.55160474E-03 -1.13224779E-02  1.71749418E-03  2.42044525E-02
 -1.23203998E-03  3.53244058E-02 -8.90330951E-04  3.40502818E-02 -1.68669269E-03
  1.10007825E-01 -1.63467443E-02  4.78614822E-02 -1.93551427E-03  1.13863274E-03
  8.20180331E-05  2.07824392E-05 -4.30800601E-04 -3.16384978E-03  8.88919854E-03
  1.53972689E-02  2.10111519E-01  4.34759327E-02  3.25716232E-04 -4.89015513E-02
  2.96695730E-01  6.58424849E-02  4.86319678E-04 -8.16001015E-02  2.77431162E-01
  2.65463275E-02  3.93722912E-02  5.03051491E-02 -5.16088075E-02 -1.99032058E-03
 -1.13315979E-01  6.82465704E-02 -7.15214477E-02 -2.90219200E-03 -3.44029444E-02
  3.00663781E-02  6.05780649E-02 -1.65911692E-03  1.48691477E-03  6.93249027E-04
 -4.91731077E-04 -2.51461390E-02  2.31292493E-02  3.27415855E-03  5.03926661E-03
  5.95692221E-03 -3.47002470E-03  6.23885471E-04 -1.38042704E-02  5.77615760E-03
 -8.44309309E-03  9.26384941E-04 -5.34657456E-02  8.62945636E-03 -2.74304831E-02
  3.20069402E-03 -2.03391127E-03  2.92587175E-04  4.67559078E-06  3.13287738E-03
  3.29638577E-03  8.07310934E-03  1.61939401E-02 -1.79900521E-02  2.15403467E-03
  6.34972545E-04  8.19758924E-05 -2.52042977E-03  6.43000273E-04  3.50664747E-02
 -2.40151943E-03 -1.96767094E-04  1.64087868E-04  9.87894794E-04  5.20156465E-03
  5.68573102E-04  7.54841779E-04  5.17245448E-04 -9.68939453E-04  5.54274572E-04
  6.82597094E-03 -7.88132450E-04  7.11369753E-04  8.63377381E-04  1.03892413E-03
 -4.41341155E-03 -7.51711464E-03 -7.38008976E-03  5.12813702E-02  1.10375197E-03
  2.35764108E-02 -1.42387014E-02  7.12666824E-02  1.58927914E-03  6.08995041E-02
 -3.06152008E-03  8.38656496E-02  1.91291073E-03 -4.58078163E-04 -3.38150275E-05
 -4.14857954E-05  1.34274826E-03 -5.16545480E-04 -1.49674226E-02 -2.61176337E-02
  4.75848524E-02  1.76509944E-01 -9.86069834E-04  8.75020533E-02  7.18068191E-02
  2.46213418E-01 -1.62293747E-03  1.12231878E-01  8.26344057E-02  2.18693187E-01
  6.57963846E-04  9.98663064E-04  1.44947905E-03 -2.06661780E-03  8.46477496E-02
 -2.85696094E-03  2.17280621E-03 -3.13678542E-03  1.28940522E-01 -3.29218324E-03
  2.01679809E-04 -5.29431392E-03  9.97803746E-02  7.96488737E-04 -1.56713384E-02
  3.06148134E-02  2.06119294E-04  7.02312476E-04 -1.13567200E-04 -1.63770627E-04
 -3.36972273E-04  7.26653930E-04 -1.53614513E-02  2.55144318E-04 -5.85653856E-04
  1.20889887E-03 -1.90947216E-02  1.01001149E-03 -1.41061936E-03  8.68617405E-03
 -8.04143064E-03 -7.27664026E-04 -7.86789750E-03  2.74627226E-03 -3.10448202E-04
  3.19697297E-04  3.94417877E-04  1.04813359E-03  4.72570292E-05  1.77975506E-04
  5.16109240E-06 -5.40441504E-03  2.05122593E-03  7.84382000E-04 -1.06420220E-03
  2.82935299E-04  4.85565534E-05 -6.23874347E-04 -1.79192535E-02 -3.49891345E-02
 -3.22362237E-02  2.04661697E-03 -7.60607410E-04  9.86248716E-04  1.55148066E-02
  3.32542238E-02  3.32397075E-02 -2.42354684E-03  1.06230551E-03  8.13652340E-04
  4.92549401E-05  8.59064610E-05 -3.59647202E-04  7.42871777E-04 -6.92308448E-02
 -1.30473597E-04 -4.82316285E-04  1.01177792E-03 -9.52419010E-02 -2.98612043E-03
 -3.49472626E-04  7.18008496E-04 -1.24306020E-01 -1.86151485E-05  2.70632581E-03
  8.60538955E-04  1.85310745E-05  4.77851648E-05 -3.41893155E-04 -5.81676717E-04
  2.10139971E-04 -6.21961576E-04  1.70347608E-01  1.65835680E-03  4.00642069E-04
 -1.07790083E-03  2.45254807E-01  5.24095361E-03  1.13167251E-03 -1.50996079E-03
  2.29303776E-01  2.42380990E-03  3.27470868E-03  2.90806926E-03 -4.01745709E-03
 -2.91262605E-04 -7.96054311E-03  4.17455637E-03 -5.51839815E-03 -4.34772301E-04
 -2.53288629E-03 -6.98223374E-04  8.81760189E-04 -2.46132749E-04  2.54428247E-04
  4.94664735E-05 -6.03583083E-05  4.66368479E-05  6.01172406E-04 -6.01935304E-05
 -1.23698682E-04 -5.49472642E-04 -4.75907433E-04  1.11675759E-05  4.22637750E-04
 -7.90067318E-04 -7.57899456E-04  4.95580240E-06  1.65080372E-03 -1.44820709E-03
 -1.21143361E-03  2.30694571E-05 -1.38095534E-05  2.36089894E-05  1.49452581E-06
  2.00480886E-05  2.51254859E-04 -1.43071603E-04  2.98856596E-04  3.50930548E-04
  1.90073869E-05 -4.91868022E-05 -1.63376102E-07 -2.82618728E-04 -3.01920841E-04
  6.70321480E-04 -9.97725425E-06  3.96514475E-05 -1.18804683E-06  3.03838105E-05
 -4.14631685E-05 -2.39078647E-04 -6.11955902E-05  8.46795795E-06 -8.44212427E-06
  1.43157300E-05 -1.27211605E-04 -4.18808140E-04 -6.46699887E-05  1.24473544E-05
  7.79027717E-06 -1.45533131E-04 -2.43346835E-04  6.90913957E-04  3.16367462E-04
 -5.38547502E-06  7.77189714E-04  9.46892691E-04  3.93938095E-04 -1.58392972E-05
  8.54322039E-04  1.34901514E-03  6.40692329E-04  4.49223665E-05  1.29078977E-05
 -4.98157135E-06 -1.40269799E-05  1.01467421E-04  1.35471253E-04 -2.64384896E-05
  6.13202084E-05 -3.63580773E-03  5.94303300E-03 -2.34162907E-04 -3.00056810E-04
 -5.01625565E-03  8.21033724E-03 -3.47758417E-04  3.08621945E-03 -3.72002343E-03
  6.22196717E-03 -3.29271758E-04  3.95199708E-04  7.86475313E-05  1.08931430E-04
  7.21590744E-05 -2.11010758E-04  4.18026960E-03 -2.72619815E-04  1.09873790E-04
 -3.05312867E-04  6.38744280E-03 -1.78403441E-04 -6.16032253E-05 -1.99666411E-04
  4.77125094E-03  3.62378228E-05 -6.44404388E-04  9.04543639E-04  3.01290579E-05
  2.86132065E-05 -1.72997933E-07 -4.01131688E-06 -1.42501636E-05 -8.47507271E-06
  2.16906022E-04  1.80829780E-05 -1.91351646E-05 -1.13343052E-05  4.41137481E-04
  1.41438648E-04 -8.26990471E-05  2.21637244E-04  1.24640269E-04 -7.43242010E-06
 -3.42934912E-04  3.78912861E-05 -7.98152798E-06  1.82799761E-05 -1.33816020E-05
  1.17739171E-05  1.98390824E-05  3.42319556E-06  2.07408026E-06 -1.70448324E-05
  9.91165341E-06 -4.49363803E-05 -6.15728279E-05  1.54414513E-05  1.01303949E-05
  2.49124296E-05 -1.20339058E-04 -5.22255822E-04 -8.00392036E-04  1.99310688E-05
  6.77812606E-06 -6.38494326E-07  1.04591530E-04  5.29607578E-04  8.35991258E-04
 -3.87486640E-05 -7.92769795E-06  8.88672252E-06 -1.23943245E-05 -1.70897965E-05
  4.33822055E-05  3.83742086E-05 -5.09776944E-04  4.66205359E-05  6.63579193E-05
  5.42997071E-05 -5.51827322E-04 -1.03446801E-04  5.89321937E-05  1.85036302E-05
 -1.80341479E-03 -2.22865626E-06  8.23142041E-05  1.86102616E-04 -2.20496607E-06
  8.79794434E-06 -1.04322200E-07  3.78341822E-06 -1.80928377E-04  5.04385156E-06
  6.50372239E-03 -2.30155500E-05 -2.50742514E-04 -5.19714157E-06  9.41418838E-03
  1.71994426E-04 -1.91751739E-04 -5.18058448E-05  8.45881670E-03 -6.37541562E-06
  3.52097013E-04 -1.23870729E-04 -1.70418275E-04 -2.41437607E-04  2.39480886E-04
 -6.50845287E-03  4.23703207E-04 -3.47565720E-04  3.40597924E-04 -9.92521651E-03
  2.16091261E-04 -8.97576074E-05  1.86451063E-04 -7.49334816E-03 -5.86986250E-05
  1.04874991E-03 -1.29037704E-03  6.03097071E-07 -6.54832295E-05  1.45239790E-05
  2.36427317E-05  6.22553792E-05 -9.86438784E-06  6.61645708E-05 -6.09096148E-05
  9.52587619E-05 -1.24378391E-05 -1.03196900E-04 -5.02313310E-05  1.03033204E-04
 -3.14017843E-04  3.16297696E-04  3.06973057E-05  5.61217297E-04 -9.61374468E-05
  3.66847309E-06 -2.25569735E-05 -7.82166569E-06 -4.78179340E-05 -5.08134552E-06
 -5.96371828E-06  5.70939609E-06 -4.17436219E-05 -4.75383596E-05  1.11376829E-05
  2.89427978E-05 -1.19195611E-05 -8.95989800E-06 -1.77018788E-05  4.99459237E-04
  1.19170979E-03  1.36086667E-03 -4.11447574E-05  4.03026999E-06 -8.98570205E-06
 -4.19974989E-04 -1.13779071E-03 -1.38026067E-03  6.75963417E-05 -9.04552696E-06
 -1.71186437E-05  3.69721223E-06  8.95658307E-06 -1.43758257E-05 -3.07795249E-05
  5.67452808E-05 -4.37492261E-05 -2.13762161E-05 -3.86473438E-05 -1.96402775E-04
  4.02405478E-05 -2.35731155E-05 -5.28507946E-05  1.72196522E-03 -1.10595166E-07
 -1.11648632E-04 -3.27435295E-04 -8.51919823E-06 -9.01854922E-06 -1.50157080E-05
 -2.96115160E-05  7.78631613E-06 -1.89498092E-04 -9.85369533E-03  1.01999163E-04
 -1.47473510E-06 -2.54197996E-04 -1.42730445E-02 -1.92363680E-04 -5.69662535E-05
 -1.63098772E-04 -1.27519123E-02  9.44743364E-06 -5.36583695E-04  8.23121944E-04
  1.55876943E-03  2.10888934E-03  6.27692004E-03 -1.18532921E-04 -8.27813330E-05
 -5.24085492E-03  8.74420976E-03  1.76788512E-04 -1.17224811E-04  5.18644841E-04
  5.44821600E-03  3.87300731E-03 -7.18293970E-05  2.96328520E-04  3.54661540E-05
 -4.43459733E-06 -1.33797610E-03  9.91423560E-04 -3.67562936E-04 -5.52292052E-04
 -1.94297516E-03 -2.08950296E-04 -6.01775576E-06  1.45481046E-03 -3.02954392E-03
 -4.97627625E-04 -1.07197215E-05 -4.28253525E-03 -5.64602201E-04 -1.62072312E-03
  1.91722674E-04 -2.83118723E-04  1.11710607E-05  9.26806434E-06  5.08160593E-04
  1.31925897E-05  1.04266206E-03  1.52498975E-03 -3.82395907E-04  8.26277686E-05
 -3.16221266E-04 -1.16324400E-06 -5.73792497E-04 -5.23259346E-04  1.22747072E-03
 -3.04361552E-04 -2.56313821E-05  5.54431117E-06 -2.29828367E-04 -7.19440371E-05
 -1.71788667E-04 -7.21939383E-05  1.36263563E-05 -4.46919326E-05 -1.74158708E-04
  1.82461257E-04 -6.79280140E-05 -7.94480630E-05  3.47295861E-05  5.00031038E-05
  3.21686833E-04  3.55369925E-04 -1.45440069E-03 -7.23470733E-04  4.23791440E-06
 -5.26432495E-04 -2.28360990E-03 -1.21881111E-03  8.54112339E-06  3.53336934E-03
 -1.54484983E-03  1.08927656E-03  1.67171036E-05  1.12490865E-04  1.06666087E-07
 -2.44101662E-06  4.60033170E-04 -5.26066491E-05  2.96528657E-04  5.39308123E-04
  5.79050600E-03  9.70589281E-03  3.96866555E-07 -1.60856148E-03  8.42980448E-03
  1.37440049E-02 -6.68193581E-06  6.93945910E-04  8.21595599E-03  1.17602016E-02
 -6.59572938E-06  2.87201322E-04 -5.55838942E-06 -1.58107286E-05  9.55664543E-04
  3.89391090E-03  5.36573550E-03  3.24253737E-03 -7.73705587E-03 -2.47426880E-04
 -1.32623837E-02  4.77196389E-03 -1.06757329E-02 -3.62972196E-04 -4.93158460E-03
 -3.88382100E-03 -7.22593257E-05 -9.86838048E-05  4.54183419E-04  3.05632214E-05
 -6.36344088E-05  1.05385851E-03  9.69728190E-04 -6.83569289E-05 -2.53975232E-04
 -5.34231835E-04  8.99733262E-05 -1.36750086E-05  1.13121272E-03 -6.80224290E-04
  6.91768674E-05 -3.61846693E-05  6.19176694E-03 -2.85153825E-03 -5.05327145E-04
 -1.39068871E-04  3.48321965E-05  1.46166460E-05 -1.27291826E-05 -2.26676876E-04
  5.33305626E-04  5.59153086E-05  1.06255535E-03  1.18126242E-03  1.41048441E-04
  8.32623317E-05  3.73903613E-06  5.15539111E-04  6.28139530E-04  8.95351406E-04
  7.04602110E-05  2.26437416E-05  1.55962798E-06 -1.11380903E-04 -4.65072166E-04
 -7.46520125E-04 -9.52981072E-05  5.55994371E-05  3.18661907E-05 -1.86584106E-04
 -7.40713231E-04 -1.06793588E-03 -9.37029900E-05  4.46133713E-05 -4.57765557E-05
 -1.59799162E-04 -2.71147636E-04  7.67747476E-04  1.19370953E-03 -1.15474197E-06
  9.08575173E-04  1.10650432E-03  1.64855257E-03 -6.40562994E-06 -1.19724882E-03
  2.08507503E-03  1.22350538E-03  2.26693132E-05 -5.63084181E-05 -5.05843932E-06
 -1.11168692E-05  3.80560192E-05  2.19952430E-04  7.46268600E-04  1.37213030E-03
 -9.92218841E-03  6.66615160E-03 -7.43252034E-06 -4.22857856E-03 -1.38907388E-02
  9.07149869E-03 -2.33483125E-05  1.95786787E-03 -1.12723249E-02  5.94217961E-03
 -6.03882179E-05  6.25162403E-04  1.39498313E-05 -1.18505818E-05  1.30260674E-04
  1.18106537E-03
Mulliken Charges                           R   N=           8
  2.85714981E-01 -3.01146431E-01  2.62530088E-01  1.37947898E-01  1.38880351E-01
  1.37162102E-01 -3.10020520E-01 -3.51068468E-01
ONIOM Charges                              I   N=          16
           0           0           0           0           0           0
           0           0           0           0           0           0
           0           0           0           0
ONIOM Multiplicities                       I   N=          16
           1           0           0           0           0           0
           0           0           0           0           0           0
           0           0           0           0
Atom Layers                                I   N=           8
           1           1           1           1           1           1
           1           1
Atom Modifiers                             I   N=           8
           0           0           0           0           0           0
           0           0
Force Field                                I                0
Int Atom Modified Types                    I   N=           8
           0           0           0           0           0           0
           0           0
Link Atoms                                 I   N=           8
           0           0           0           0           0           0
           0           0
Atom Modified MM Charges                   R   N=           8
  0.00000000E+00  0.00000000E+00  0.00000000E+00  0.00000000E+00  0.00000000E+00
  0.00000000E+00  0.00000000E+00  0.00000000E+00
Link Distances                             R   N=          32
  0.00000000E+00  0.00000000E+00  0.00000000E+00  0.00000000E+00  0.00000000E+00
  0.00000000E+00  0.00000000E+00  0.00000000E+00  0.00000000E+00  0.00000000E+00
  0.00000000E+00  0.00000000E+00  0.00000000E+00  0.00000000E+00  0.00000000E+00
  0.00000000E+00  0.00000000E+00  0.00000000E+00  0.00000000E+00  0.00000000E+00
  0.00000000E+00  0.00000000E+00  0.00000000E+00  0.00000000E+00  0.00000000E+00
  0.00000000E+00  0.00000000E+00  0.00000000E+00  0.00000000E+00  0.00000000E+00
  0.00000000E+00  0.00000000E+00
Cartesian Gradient                         R   N=          24
  0.00000000E+00  0.00000000E+00  0.00000000E+00  0.00000000E+00  0.00000000E+00
  0.00000000E+00  0.00000000E+00  0.00000000E+00  0.00000000E+00  0.00000000E+00
  0.00000000E+00  0.00000000E+00  0.00000000E+00  0.00000000E+00  0.00000000E+00
  0.00000000E+00  0.00000000E+00  0.00000000E+00  0.00000000E+00  0.00000000E+00
  0.00000000E+00  0.00000000E+00  0.00000000E+00  0.00000000E+00
Dipole Moment                              R   N=           3
  2.88417618E-01 -6.72723608E-01 -7.69117360E-03
Quadrupole Moment                          R   N=           6
  2.86153372E+00 -3.04568577E+00  1.84152047E-01  2.74998037E+00  5.79790803E-02
 -1.74457326E-02
QEq coupling tensors                       R   N=          48
  3.39525224E-01 -1.50514179E-01  6.52123815E-02 -6.85082813E-03  6.24663992E-03
 -4.04737605E-01 -9.25516447E-02 -2.81789665E-02  5.52332855E-02 -5.14576428E-03
  8.95465349E-03  3.73183592E-02 -3.51928978E-01  1.12057733E-02  1.59721530E-01
 -6.44166332E-04  3.43679199E-04  1.92207449E-01  8.60890179E-02 -1.18908724E-01
 -2.19400034E-01  8.74999476E-03  2.63432664E-02  1.33311016E-01  9.00812890E-02
  6.51806142E-02  9.89585792E-02 -1.49282440E-01  1.55861243E-01 -1.89039868E-01
  9.43699346E-02  1.01558446E-01  3.97712767E-02  1.51732311E-01 -2.12134916E-01
 -1.34141211E-01 -1.16880432E+00 -9.49515146E-01 -9.63084951E-03 -6.35536252E-03
  1.55471185E-02  1.17843517E+00  9.17915476E-01  1.13061051E+00  3.65740395E-02
 -1.21341977E-02 -1.76393082E-02 -9.54489516E-01
